LAMMPS (22 Jul 2025 - Update 4)
OMP_NUM_THREADS environment is not set. Defaulting to 1 thread.
  using 1 OpenMP thread(s) per MPI task
# 2000-step NVT preparation plus 10000-step NVE stability gate.
units metal
atom_style atomic
boundary p p p
atom_modify map yes sort 0 0.0
newton on
lattice fcc 3.508
Lattice spacing in x,y,z = 3.508 3.508 3.508
region cell block 0 2 0 2 0 2 units lattice
create_box 1 cell
Created orthogonal box = (0 0 0) to (7.016 7.016 7.016)
  1 by 2 by 2 MPI processor grid
create_atoms 1 box
Created 32 atoms
  using lattice units in orthogonal box = (0 0 0) to (7.016 7.016 7.016)
  create_atoms CPU = 0.000 seconds
mass 1 58.693399999999997
reset_atoms id sort yes
Resetting atom IDs ...
WARNING: Communication cutoff is 0.0. No ghost atoms will be generated. Energies and forces may be wrong and atoms may get lost. (src/comm_brick.cpp:212)
displace_atoms all random 0.01 0.01 0.01 78315 units box
Displacing atoms ...
velocity all create 1382.4000000000001 86234 mom yes rot no dist gaussian
neighbor 0.3 bin
neigh_modify every 1 delay 0 check yes
pair_style hybrid/overlay ye3t model_family tagged_cauchy block_policy direct zbl 1.2596748174007975 1.6195819080867397
YE3T configuration: model_family tagged_cauchy, source_realization model_default, chunksize 4096, block_policy direct, plan none, auto_replay none
pair_coeff * * ye3t models/ye3t_tagged_127/model.ye3t.json Ni
YE3T CPU dispatch: PACE-compatible spline/half-complex source with split-real harmonics, exact signed-m expansion/collapse, tiled split-real symmetric-power forward/adjoint, source_model 1bd585a6138d3702825705775e6b9d8d3b9ccd61b74c756cc08963058a77ecd9, direct_logical_plan 0effb630584d67a523eb220f442366d82004c1fc31e2cdbf8d598078f99e88e6
YE3T CPU source schedule: complete environments in 8/16-center batches, soft cache target 1048576 bytes (992 edges), no source-table replay; chunksize is an outer packing limit, not a memory limit
YE3T self-contained composite: ordinary model 3d39ec21d7a1453531e9e1bc7bb9872b7a5574e7585098d6b6adf932522259fe, tagged model fb888014ca211e6415b58a7d859811e0d12e6c31760628b5eff5990844ad4350, manifest 1bd585a6138d3702825705775e6b9d8d3b9ccd61b74c756cc08963058a77ecd9, ordinary evaluator compiled_direct, tagged evaluator compiled_direct
YE3T tagged-Cauchy CPU dispatch: real-arithmetic exact moment reduction, evaluator compiled_direct, portfolio 6cb232720b3a8c41e5a1f0afbc1fdcd6c30933ef9064a770cff3b61d6a4b7a18, tag_count 2, feature_count 69, model_self_hash 0effb630584d67a523eb220f442366d82004c1fc31e2cdbf8d598078f99e88e6
Loaded YE3T tagged-Cauchy potential models/ye3t_tagged_127/model.ye3t.json
pair_coeff * * zbl 28 28
timestep 0.0005
thermo 100
thermo_style custom step temp pe ke etotal press
thermo_modify format float %.17g
fix thermostat all nvt temp 1382.4000000000001 1382.4000000000001 0.05
run 2000
Neighbor list info ...
  update: every = 1 steps, delay = 0 steps, check = yes
  max neighbors/atom: 2000, page size: 100000
  master list distance cutoff = 4.9380492
  ghost atom cutoff = 4.9380492
  binsize = 2.4690246, bins = 3 3 3
  2 neighbor lists, perpetual/occasional/extra = 2 0 0
  (1) pair ye3t, perpetual
      attributes: full, newton on, cut 4.938049165633363
      pair build: full/bin/atomonly
      stencil: full/bin/3d
      bin: standard
  (2) pair zbl, perpetual, half/full from (1)
      attributes: half, newton on
      pair build: halffull/newton
      stencil: none
      bin: none
Per MPI rank memory allocation (min/avg/max) = 8.823 | 8.92 | 8.989 Mbytes
   Step          Temp          PotEng         KinEng         TotEng         Press     
         0  1382.4000000000003 -184.93300192362881 5.5393659578880019 -179.3936359657408 43049.285865096972
       100  565.2132498189319 -181.09734263497273 2.2648459454530077 -178.83249668951973 81042.281338569592
       200  863.78943414321702 -180.88556244551341 3.4612599727114262 -177.424302472802 93439.682743684098
       300  1502.6722928197412 -181.27910012029974 6.0213047921782294 -175.25779532812152 95147.888758507717
       400  928.37725840701466 -177.53468158651253 3.720067550128189 -173.81461403638434 138022.30530875581
       500  1776.0423122513887 -179.65256036954662 7.1167160910402441 -172.53584427850637 125749.07238840526
       600  1306.7612732272646 -178.88435558493319 5.2362767013899667 -173.64807888354323 119968.21998321598
       700  1288.3326557068417 -179.38482248850698 5.162432042431945 -174.22239044607505 123545.12373754419
       800  1032.7273192488826 -179.37417919670975 4.1382049739787279 -175.23597422273102 114655.33861204516
       900  1261.8126012635005 -180.07201894855905 5.0561644738665654 -175.01585447469247 109010.92923612932
      1000  1344.7480141326337 -179.08665572926856 5.3884920221526356 -173.69816370711592 124445.72794529986
      1100  1643.370849318969 -178.7459810877881 6.5850929824240367 -172.16088810536405 127631.38825555304
      1200  1778.9357366650538 -178.50035225899308 7.1283102292772078 -171.37204202971586 135536.88064306692
      1300  1319.5167504659282 -177.87495397420463 5.2873887213497968 -172.58756525285483 136514.77034003253
      1400  1459.0537381708605 -178.73413214936483 5.8465224305214818 -172.88760971884335 129062.40120868006
      1500  1174.5109462882451 -179.03953688561745 4.7063411118604792 -174.33319577375698 118630.07418811654
      1600  1192.5625984947562 -179.60210442352076 4.7786752464932789 -174.82342917702749 112134.81926597786
      1700  1689.1788773215787 -180.46387321319457 6.7686487050192596 -173.69522450817533 106673.03125605365
      1800  1075.871206553715 -177.20398118562389 4.3110853129742033 -172.89289587264969 145535.12294883098
      1900  1497.0637120640738 -177.64600733192793 5.9988308473648537 -171.64717648456309 148677.3385205286
      2000  1576.4335526232799 -179.05443913462557 6.3168709174434596 -172.73756821718212 122582.69748626686
Loop time of 0.836173 on 4 procs for 2000 steps with 32 atoms

Performance: 103.328 ns/day, 0.232 hours/ns, 2391.850 timesteps/s, 76.539 katom-step/s
86.1% CPU use with 4 MPI tasks x 1 OpenMP threads

MPI task timing breakdown:
Section |  min time  |  avg time  |  max time  |%varavg| %total
---------------------------------------------------------------
Pair    | 0.60491    | 0.62687    | 0.6452     |   2.2 | 74.97
Neigh   | 0.0012612  | 0.0013022  | 0.0013487  |   0.1 |  0.16
Comm    | 0.18342    | 0.20135    | 0.2231     |   3.9 | 24.08
Output  | 0.0002518  | 0.00026662 | 0.00030825 |   0.0 |  0.03
Modify  | 0.0036407  | 0.0041233  | 0.0044776  |   0.5 |  0.49
Other   |            | 0.002264   |            |       |  0.27

Nlocal:              8 ave          11 max           4 min
Histogram: 1 0 0 0 1 0 0 0 1 1
Nghost:            216 ave         219 max         213 min
Histogram: 1 1 0 0 0 0 0 0 1 1
Neighs:            189 ave         253 max         101 min
Histogram: 1 0 0 0 1 0 0 0 1 1
FullNghs:          378 ave         522 max         191 min
Histogram: 1 0 0 0 1 0 0 0 1 1

Total # of neighbors = 1512
Ave neighs/atom = 47.25
Neighbor list builds = 86
Dangerous builds = 0
unfix thermostat
reset_timestep 0
fix integrate all nve
dump trajectory all custom 100 trajectory.ye3t_tagged_127.lammpstrj id type x y z vx vy vz fx fy fz
dump_modify trajectory sort id
print "YE3T_NVE_BEGIN"
YE3T_NVE_BEGIN
run 10000
Per MPI rank memory allocation (min/avg/max) = 9.244 | 9.424 | 9.526 Mbytes
   Step          Temp          PotEng         KinEng         TotEng         Press     
         0  1576.4335526232799 -179.05443913462557 6.3168709174434596 -172.73756821718212 122582.69748626686
       100  1665.2097309681301 -179.41021941721476 6.672602789690897 -172.73761662752386 121731.57220132602
       200  1349.811976293561 -178.14628730640163 5.4087836451317104 -172.73750366126993 134960.47019494022
       300  1557.6818000316723 -178.97932866617714 6.2417314354146045 -172.73759723076253 129875.93963846589
       400  1633.1133266021052 -179.28156043341806 6.5439904273386356 -172.73757000607944 123520.13433122408
       500  1254.3950293063415 -177.7639257036908 5.0264417846379263 -172.73748391905286 139348.55723942877
       600  1806.5330239925954 -179.97652971186636 7.2388943394857135 -172.73763537238065 117745.30311794652
       700  1330.3051883753988 -178.06816548409398 5.3306186878533479 -172.73754679624062 132400.50658254034
       800  1536.7603963974639 -178.8954163907116 6.1578980217264041 -172.73751836898521 128310.38480740935
       900  1678.3542862143488 -179.46289847530727 6.7252738703205859 -172.73762460498668 118593.68335643697
      1000  1198.3920858984948 -177.53945611194848 4.8020343784928494 -172.73742173345562 142226.35662190677
      1100  1656.2664980855452 -179.37423449081018 6.6367666787365742 -172.73746781207362 127109.56039690891
      1200  1277.1459123333918 -177.85513014480148 5.1176060402455175 -172.73752410455597 137869.68541075638
      1300  1223.1645386378993 -177.63872669524346 4.901299194318983 -172.73742750092447 144694.84836463965
      1400  1695.5402774234781 -179.53174223960872 6.7941392455060701 -172.73760299410264 123758.60020281303
      1500  1551.1816729865097 -178.95323305959147 6.2156850071189442 -172.73754805247253 125909.97405693898
      1600  1451.9918604828231 -178.55573976690096 5.8182250311697148 -172.73751473573125 132196.49740090995
      1700  1465.1539256618462 -178.60844887736943 5.8709662752294536 -172.73748260213998 129128.00051297832
      1800  1413.8470037519792 -178.40288818491172 5.6653761300966883 -172.73751205481503 136950.45224286598
      1900  1422.119080578791 -178.43601140657785 5.698522875449318 -172.73748853112852 133906.72966410304
      2000  1572.1944438785442 -179.03754466773546 6.2998845353019854 -172.73766013243346 129293.47741224605
      2100  1520.9509301638284 -178.83208900171451 6.0945484708967017 -172.7375405308178 129369.80012201596
      2200  1578.0233968108803 -179.06082031142245 6.3232415256401753 -172.73757878578226 126472.78658446499
      2300  1414.4672165522431 -178.40536009382402 5.6678613627879706 -172.73749873103606 133030.76969848189
      2400  1521.2282026723506 -178.83324884195224 6.0956595197210408 -172.7375893222312 131067.2574790644
      2500  1672.5600807704184 -179.43970438057602 6.7020561154094764 -172.73764826516654 120666.77921705623
      2600  1653.5132351802617 -179.36339239958892 6.6257341767034124 -172.7376582228855 123627.61084140489
      2700  1557.9801127132046 -178.98058713388929 6.2429267935691808 -172.7376603403201 128863.92651305672
      2800  1564.749067303203 -179.00764038208916 6.2700504311750311 -172.73758995091413 128641.09113633227
      2900  1619.1229891651362 -179.22547563509738 6.4879302429218875 -172.73754539217549 124586.30996562126
      3000  1389.249931016622 -178.30438786534091 5.5668140732579054 -172.737573792083 133211.13634118132
      3100  1730.8334865411482 -179.67322008017356 6.9355614106760965 -172.73765866949748 116725.62970164377
      3200  1487.0224342680663 -178.69620515144777 5.9585947996240405 -172.73761035182372 128974.16686472879
      3300  1483.1392823729552 -178.68063471079165 5.9430347595364488 -172.73759995125519 129029.40582215211
      3400  1589.3062492884565 -179.10594117469918 6.3684526432053934 -172.7374885314938 125687.79529971839
      3500  1351.7309309608258 -178.15388599037169 5.4164730202464222 -172.73741297012526 136282.58036388192
      3600  1387.1222733264478 -178.29584851656136 5.5582884116700955 -172.73756010489126 134159.7160669415
      3700  1789.9111633568266 -179.90993388450585 7.1722894718912853 -172.73764441261457 116618.0963760242
      3800  1582.0301642203788 -179.0769476284317 6.3392969010664997 -172.73765072736521 125465.82737664942
      3900  1394.7830701735434 -178.32659378177453 5.5889857187195 -172.73760806305503 135999.53521797631
      4000  1690.1705899260362 -179.51024251718906 6.7726225613858251 -172.73761995580324 120726.89188644885
      4100  1427.7434795716799 -178.45864264206989 5.7210602049594375 -172.73758243711046 131461.26920727338
      4200  1587.3311819575697 -179.09808034715797 6.3605384210285631 -172.73754192612941 127403.57848983526
      4300  1495.0925973047579 -178.72860975071865 5.990932463397229 -172.73767728732142 128032.62923905624
      4400  1594.0922983997739 -179.12529669321719 6.3876306506706797 -172.73766604254652 128189.21056918382
      4500  1816.7417516543856 -180.01766515254224 7.2798013696383963 -172.73786378290384 114608.12796855214
      4600  1521.3995253691282 -178.8340058374493 6.0963460208164859 -172.7376598166328 124881.39228563791
      4700  1554.5090577909523 -178.96661916332948 6.2290180526300292 -172.73760111069944 126809.26838972987
      4800  1413.3124044673104 -178.4007486700732 5.6632339562840395 -172.73751471378915 132135.32890900192
      4900  1289.0035597607766 -177.90252278441619 5.1651203982460192 -172.73740238617017 139640.81436395057
      5000  1522.9486132205616 -178.84016357985752 6.1025533157456007 -172.73761026411191 127692.35835194762
      5100  1392.7558584922808 -178.31845760400546 5.5808625507676632 -172.73759505323778 135005.2332500497
      5200  1731.6657379261133 -179.67658877287852 6.9388962956517037 -172.7376924772268 120429.27899672446
      5300  1352.5348478704962 -178.15726896776243 5.4196943671520925 -172.73757460061034 131334.64572627994
      5400  1693.9393820003181 -179.5252951192752 6.787724354295718 -172.73757076497949 122582.16472916333
      5500  1307.2108097412279 -177.97565851023819 5.2380780231942747 -172.73758048704391 137388.45951739314
      5600  1499.9249290299663 -178.74791030135708 6.0102959282813737 -172.7376143730757 127645.83420150516
      5700  1478.0027286159141 -178.66002633247103 5.9224522573499501 -172.73757407512107 132415.66987726509
      5800  1709.383581457515 -179.58737963429115 6.8496102575943496 -172.7377693766968 121026.22956612283
      5900  1673.791863196014 -179.4446940489517 6.7069919470326456 -172.73770210191907 120993.47762212601
      6000  1531.1595821096128 -178.87315844146656 6.135455197650467 -172.7377032438161 131436.92958246105
      6100  1676.1317029502547 -179.45418820388176 6.716367835835853 -172.7378203680459 124602.1942187321
      6200  1568.7359398386536 -179.0236963238965 6.2860260865579258 -172.73767023733856 130150.77278002577
      6300  1450.4782809252565 -178.5496980233541 5.8121600202642316 -172.73753800308987 132297.32096236208
      6400  1375.6635805345802 -178.24984335387916 5.5123726906246899 -172.73747066325447 139540.88359651013
      6500  1244.9558018465593 -177.72606730685294 4.9886181914236039 -172.73744911542934 139503.51833355261
      6600  1492.8835123048509 -178.71949379522772 5.9820805173276641 -172.73741327790006 134876.80402066154
      6700  1219.8318064294303 -177.62540138482552 4.8879447214150833 -172.73745666341043 143541.54731829607
      6800  1420.2199166391201 -178.42842775652656 5.6909128030564791 -172.73751495347008 134555.67671480204
      6900  1446.4608199662532 -178.53358956810376 5.796061795095361 -172.7375277730084 133076.12013680779
      7000  1345.6825766494501 -178.12969075282331 5.3922368744321281 -172.73745387839119 137771.40949228144
      7100  1665.5497608765015 -179.41156224710505 6.6739653114639701 -172.73759693564108 122327.04933775221
      7200  1507.9866979531005 -178.78026488236912 6.0425999563001591 -172.73766492606896 128308.80875962526
      7300  1552.5648486411085 -178.95880929866519 6.2212274811748358 -172.73758181749037 125666.49974555706
      7400  1441.5642946055493 -178.51389529161872 5.7764411021736173 -172.73745418944512 131877.96189583439
      7500  1480.6772305927259 -178.67081244982387 5.9331691592630404 -172.73764329056084 130257.93679327582
      7600  1165.9685307037694 -177.4095426174203 4.6721111016703922 -172.7374315157499 147853.00560941477
      7700  1564.5175361532711 -179.00671452893062 6.2691226709246521 -172.73759185800597 126770.61971341708
      7800  1428.5681042736528 -178.4619272923847 5.7243645293244123 -172.73756276306028 134989.80921696624
      7900  1689.2338254456768 -179.50651620423594 6.7688688856964001 -172.73764731853953 124440.91924692623
      8000  1274.9036505820141 -177.84604645117389 5.1086211527930754 -172.73742529838083 140720.02769868777
      8100  1422.6129831253534 -178.43803346638549 5.7005019748076382 -172.73753149157784 135666.43576628622
      8200  1588.6358420597194 -179.1034541541153 6.3657662782019298 -172.73768787591337 129002.50762412562
      8300  1564.563806361318 -179.00700120139425 6.2693080786324931 -172.73769312276175 127175.80920261263
      8400  1688.0616569090053 -179.50187764913937 6.7641719307709476 -172.73770571836843 124395.77932278505
      8500  1615.4858857689499 -179.21104440801554 6.4733561350383857 -172.73768827297715 123505.54243534057
      8600  1846.0958736830687 -180.13524676182061 7.3974252298014305 -172.73782153201918 113539.52861087435
      8700  1176.9056553260261 -177.45340207941939 4.7159368654216278 -172.73746521399775 149301.49122395981
      8800  1469.5456524570579 -178.62610111485583 5.8885642077422871 -172.73753690711354 134996.53796655749
      8900  1601.8136927052431 -179.15622762174252 6.4185707756440209 -172.7376568460985 124769.39680675113
      9000  1626.0667124766912 -179.25342830290413 6.5157541900667235 -172.7376741128374 124207.21121487451
      9100  1684.4144913488665 -179.48728211199966 6.7495575031475283 -172.73772460885215 122321.22868959175
      9200  1516.908369935891 -178.81595689547402 6.0783496713384348 -172.73760722413559 130410.34369928748
      9300  1315.8177843891253 -178.01005470858502 5.2725667257152304 -172.73748798286979 138678.7037448152
      9400  1787.4087538029235 -179.90004904839213 7.1622621554158918 -172.73778689297623 114352.14860064392
      9500  1547.839201395291 -178.93991197356115 6.2022915078802257 -172.73762046568092 129869.94274339193
      9600  1261.6029479847687 -177.79277520013034 5.0553243796570992 -172.73745082047324 138427.19932998574
      9700  1779.3374849773497 -179.86755195416316 7.1299200606753352 -172.73763189348782 120420.45825629483
      9800  1141.2211879764886 -177.31036916463978 4.5729469032823093 -172.73742226135747 148110.10315968213
      9900  1582.0981108406206 -179.07716100539682 6.339569167556026 -172.7375918378408 128530.99151840342
     10000  1729.7201712648205 -179.66882215668159 6.931100284560582 -172.737721872121 121665.67553762237
Loop time of 4.18276 on 4 procs for 10000 steps with 32 atoms

Performance: 103.281 ns/day, 0.232 hours/ns, 2390.765 timesteps/s, 76.504 katom-step/s
84.8% CPU use with 4 MPI tasks x 1 OpenMP threads

MPI task timing breakdown:
Section |  min time  |  avg time  |  max time  |%varavg| %total
---------------------------------------------------------------
Pair    | 3.1128     | 3.1318     | 3.1534     |   0.8 | 74.87
Neigh   | 0.0068889  | 0.0069488  | 0.0070796  |   0.1 |  0.17
Comm    | 0.98965    | 1.012      | 1.0309     |   1.5 | 24.19
Output  | 0.007479   | 0.0083639  | 0.01035    |   1.3 |  0.20
Modify  | 0.002564   | 0.0025983  | 0.0026563  |   0.1 |  0.06
Other   |            | 0.02107    |            |       |  0.50

Nlocal:              8 ave          10 max           6 min
Histogram: 1 0 1 0 0 0 0 1 0 1
Nghost:            213 ave         215 max         211 min
Histogram: 1 0 1 0 0 0 0 1 0 1
Neighs:         189.25 ave         233 max         145 min
Histogram: 1 0 1 0 0 0 0 1 0 1
FullNghs:        378.5 ave         474 max         284 min
Histogram: 1 0 1 0 0 0 0 1 0 1

Total # of neighbors = 1514
Ave neighs/atom = 47.3125
Neighbor list builds = 461
Dangerous builds = 0
print "YE3T_NVE_END"
YE3T_NVE_END
Total wall time: 0:00:05
