LAMMPS (22 Jul 2025 - Update 4)
OMP_NUM_THREADS environment is not set. Defaulting to 1 thread.
  using 1 OpenMP thread(s) per MPI task
# 2000-step NVT preparation plus 10000-step NVE stability gate.
units metal
atom_style atomic
boundary p p p
atom_modify map yes sort 0 0.0
newton on
lattice fcc 3.508
Lattice spacing in x,y,z = 3.508 3.508 3.508
region cell block 0 2 0 2 0 2 units lattice
create_box 1 cell
Created orthogonal box = (0 0 0) to (7.016 7.016 7.016)
  1 by 2 by 2 MPI processor grid
create_atoms 1 box
Created 32 atoms
  using lattice units in orthogonal box = (0 0 0) to (7.016 7.016 7.016)
  create_atoms CPU = 0.000 seconds
mass 1 58.693399999999997
reset_atoms id sort yes
Resetting atom IDs ...
WARNING: Communication cutoff is 0.0. No ghost atoms will be generated. Energies and forces may be wrong and atoms may get lost. (src/comm_brick.cpp:212)
displace_atoms all random 0.01 0.01 0.01 77306 units box
Displacing atoms ...
velocity all create 1382.4000000000001 85225 mom yes rot no dist gaussian
neighbor 0.3 bin
neigh_modify every 1 delay 0 check yes
pair_style hybrid/overlay pace product zbl 1.2596748174007975 1.6195819080867397
ACE version: 2025.12.4p1
Product evaluator is used
pair_coeff * * pace models/ace_127/potential.yace Ni
Loading models/ace_127/potential.yace
Total number of basis functions
	Ni: 4 (r=1) 123 (r>1)
Mapping LAMMPS atom type #1(Ni) -> ACE species type #0
pair_coeff * * zbl 28 28
timestep 0.0005
thermo 100
thermo_style custom step temp pe ke etotal press
thermo_modify format float %.17g
fix thermostat all nvt temp 1382.4000000000001 1382.4000000000001 0.05
run 2000
Neighbor list info ...
  update: every = 1 steps, delay = 0 steps, check = yes
  max neighbors/atom: 2000, page size: 100000
  master list distance cutoff = 4.9380492
  ghost atom cutoff = 4.9380492
  binsize = 2.4690246, bins = 3 3 3
  2 neighbor lists, perpetual/occasional/extra = 2 0 0
  (1) pair pace, perpetual
      attributes: full, newton on, cut 4.938049165633363
      pair build: full/bin/atomonly
      stencil: full/bin/3d
      bin: standard
  (2) pair zbl, perpetual, half/full from (1)
      attributes: half, newton on
      pair build: halffull/newton
      stencil: none
      bin: none
Per MPI rank memory allocation (min/avg/max) = 3.585 | 3.585 | 3.585 Mbytes
   Step          Temp          PotEng         KinEng         TotEng         Press     
         0  1382.4000000000001 -184.94724195469661 5.539365957888001 -179.4078759968086 49044.984997266103
       100  683.17943410135581 -181.51120553409021 2.7375440541017353 -178.77366147998848 87517.567747420369
       200  1176.5125363052898 -182.02456976371826 4.7143616121513254 -177.31020815156694 93035.677413441488
       300  1189.9838600269036 -180.15747417417003 4.7683420751368555 -175.38913209903319 117513.43535649683
       400  1482.837743635695 -179.42903692587862 5.9418264743685061 -173.48721045151012 128554.82194822388
       500  1702.2198541635987 -179.1698565977085 6.8209047403030354 -172.34895185740547 138333.31245032867
       600  1470.7527208324377 -178.80462280506879 5.893401008572309 -172.91122179649648 138887.30740719769
       700  1154.5694114345786 -178.85128945490237 4.6264340955725469 -174.22485535932984 137900.76931508261
       800  1178.0051894180167 -179.4565807869331 4.7203427694426852 -174.73623801749042 133612.51414384576
       900  1093.1361215977404 -179.1867826315559 4.3802669410563091 -174.80651569049959 127692.41853653399
      1000  1324.7880863938351 -179.05495274779227 5.3085113043877294 -173.74644144340454 138444.18321902808
      1100  1761.1878764395578 -179.27674673685269 7.0571934087054 -172.2195533281473 133268.42004454951
      1200  1438.9630404075228 -178.29758209897406 5.7660177088342355 -172.53156439013983 140805.15000849366
      1300  1678.6068776371064 -180.08912633523448 6.7262860204424593 -173.36284031479201 121909.35641439221
      1400  1270.9267435010856 -180.2014888400526 5.0926854296291726 -175.10880341042343 114141.13076415511
      1500  1249.4543284636695 -180.01514779017791 5.0066440777108383 -175.00850371246707 117373.04633359128
      1600  1174.344410538406 -178.90398129922363 4.7056737923701508 -174.19830750685347 131770.57681508674
      1700  1345.4891627895186 -178.4333672415564 5.3914618526211555 -173.04190538893525 149510.24866134764
      1800  1160.7182813651989 -177.89323326854637 4.6510730139559096 -173.24216025459046 149704.31376652612
      1900  1356.3562123853962 -178.87406210732149 5.4350068212222009 -173.43905528609929 143905.09175751393
      2000  1315.7975250105756 -179.29823514896191 5.2724855450787524 -174.02574960388316 127611.51913442885
Loop time of 0.774347 on 4 procs for 2000 steps with 32 atoms

Performance: 111.578 ns/day, 0.215 hours/ns, 2582.821 timesteps/s, 82.650 katom-step/s
84.4% CPU use with 4 MPI tasks x 1 OpenMP threads

MPI task timing breakdown:
Section |  min time  |  avg time  |  max time  |%varavg| %total
---------------------------------------------------------------
Pair    | 0.54604    | 0.56959    | 0.58831    |   2.1 | 73.56
Neigh   | 0.0011875  | 0.0012364  | 0.0013034  |   0.1 |  0.16
Comm    | 0.17948    | 0.1983     | 0.22175    |   3.6 | 25.61
Output  | 0.00019528 | 0.00020966 | 0.0002472  |   0.0 |  0.03
Modify  | 0.0031122  | 0.003273   | 0.0033981  |   0.2 |  0.42
Other   |            | 0.001736   |            |       |  0.22

Nlocal:              8 ave          10 max           7 min
Histogram: 2 0 0 1 0 0 0 0 0 1
Nghost:            213 ave         214 max         211 min
Histogram: 1 0 0 0 0 0 1 0 0 2
Neighs:          187.5 ave         227 max         164 min
Histogram: 2 0 0 1 0 0 0 0 0 1
FullNghs:          375 ave         468 max         329 min
Histogram: 2 0 0 1 0 0 0 0 0 1

Total # of neighbors = 1500
Ave neighs/atom = 46.875
Neighbor list builds = 89
Dangerous builds = 0
unfix thermostat
reset_timestep 0
fix integrate all nve
dump trajectory all custom 100 trajectory.ace_127.lammpstrj id type x y z vx vy vz fx fy fz
dump_modify trajectory sort id
print "YE3T_NVE_BEGIN"
YE3T_NVE_BEGIN
run 10000
Per MPI rank memory allocation (min/avg/max) = 3.601 | 3.601 | 3.601 Mbytes
   Step          Temp          PotEng         KinEng         TotEng         Press     
         0  1315.7975250105756 -179.29823514896236 5.2724855450787524 -174.02574960388361 127611.5191343761
       100  1523.9704256387479 -180.13249874645348 6.1066477840070652 -174.02585096244641 120295.92913068505
       200  1262.9235293481968 -179.08629049130525 5.0606160343512503 -174.02567445695399 135545.00238873943
       300  1132.8059978957338 -178.56485231063434 4.5392266938910399 -174.0256256167433 138309.09967464328
       400  1357.4854446217371 -179.46528756903706 5.4395317276230521 -174.025755841414 129435.01928119226
       500  1449.6631481493523 -179.8346665848386 5.8088937306591957 -174.02577285417939 123553.32752081397
       600  1419.8635015122811 -179.71530630391044 5.6894846246562407 -174.02582167925419 125291.79386192199
       700  1268.5045178411499 -179.10867135169099 5.0829794151883663 -174.02569193650262 134284.82785999542
       800  1150.7350681218518 -178.63673830905452 4.6110696346224795 -174.02566867443204 138582.06152859042
       900  1393.0087543071777 -179.60760168123636 5.5818759206084705 -174.02572576062789 126071.11392045165
      1000  1357.2929407666663 -179.46453251762563 5.438760352260247 -174.02577216536537 126573.0208085849
      1100  1372.664982211898 -179.52608522524554 5.5003571137511038 -174.02572811149443 129623.54593720664
      1200  1413.1043729421019 -179.68809604879078 5.6624003605455355 -174.02569568824524 126218.38637507899
      1300  985.68768918414082 -177.97527705425105 3.9497141424883666 -174.02556291176268 143314.7225648766
      1400  1428.399372421537 -179.74940829167653 5.7236884099106238 -174.02571988176589 127994.41944605783
      1500  1456.0968569948918 -179.86050408605848 5.8346740169453239 -174.02583006911317 118601.21390343992
      1600  1291.0066621957299 -179.19888835875142 5.1731469588929686 -174.02574139985845 129973.04543241867
      1700  1518.6369842765025 -180.11103818851916 6.0852763404882468 -174.02576184803092 121176.00126700519
      1800  1182.590882931697 -178.76443785815584 4.738717939106305 -174.02571991904955 132121.22740890729
      1900  1505.6010795856855 -180.05880982154551 6.0330406296414703 -174.02576919190403 123494.9868375776
      2000  1262.77873928657 -179.08578492276507 5.0600358512360772 -174.02574907152899 128339.78524135388
      2100  1379.4674923388316 -179.55334684776307 5.5276152105576175 -174.02573163720544 130129.71093200492
      2200  1311.2174832193502 -179.2798474807451 5.2541330222315175 -174.02571445851359 132980.11031688776
      2300  1212.9113185380509 -178.88583691851829 4.8602138800974597 -174.02562303842083 134387.5281590427
      2400  1230.2509972938731 -178.95530726840155 4.9296950911946205 -174.02561217720694 138024.49934439012
      2500  1272.5044007544491 -179.1247015108068 5.0990072039944048 -174.0256943068124 129819.18782210239
      2600  1292.7644073492968 -179.20587127477626 5.180190357089085 -174.02568091768717 133583.92674723905
      2700  1262.9862507763557 -179.08654632149916 5.0608673631591019 -174.02567895834005 132972.11714082342
      2800  1261.7732382681327 -179.08175866076144 5.0560067438054102 -174.02575191695604 135181.36664814965
      2900  1462.1137464124968 -179.88460478571119 5.8587840809009499 -174.02582070481023 128134.2095458269
      3000  1498.5695535833875 -180.03082017027464 6.0048648514519929 -174.02595531882264 121381.39214762131
      3100  1180.7809676829138 -178.75720318129987 4.7314654919739469 -174.02573768932592 130709.55804709099
      3200  1374.4855826359278 -179.53343511634793 5.5076523770698156 -174.02578273927813 129565.08557045636
      3300  1526.5215387796929 -180.14286599285703 6.1168702588968742 -174.02599573396014 122811.99737836789
      3400  1562.5273602931536 -180.28712591348778 6.2611479078967696 -174.02597800559101 120181.38801874036
      3500  1458.2671876502318 -179.86926749299769 5.8433706718567473 -174.02589682114095 124971.88705891387
      3600  1405.4589753830783 -179.6576012618641 5.6317647594366127 -174.0258365024275 130580.73287919628
      3700  1401.7136438015548 -179.64260180316597 5.6167569742342875 -174.0258448289317 133242.30540604185
      3800  1479.075000751498 -179.95268935728558 5.9267489209534263 -174.02594043633215 126095.46526441007
      3900  1285.8146346005092 -179.17815999475593 5.1523421694590992 -174.02581782529683 127073.78509702875
      4000  1530.700283937085 -180.15950370024095 6.1336147602507127 -174.02588893999024 120939.4866399116
      4100  1343.8499267747366 -179.41071798288493 5.3848933281873972 -174.02582465469754 134789.99253903326
      4200  1398.0891158752202 -179.62807886029213 5.6022332570695363 -174.02584560322259 130263.48658592378
      4300  1555.9168709596047 -180.26061226899708 6.2346592507937295 -174.02595301820335 122395.3537065873
      4400  1186.0346831247125 -178.7782843883034 4.7525174685876115 -174.02576691971581 138051.26036972072
      4500  1402.9178848581043 -179.6473335584092 5.6215824458154087 -174.02575111259378 132579.90346113965
      4600  1361.7272411864039 -179.48245970766999 5.4565288800323417 -174.02593082763764 129329.67831278261
      4700  1436.7353649198888 -179.78291799867634 5.7570912694813554 -174.02582672919499 125950.75919084539
      4800  1191.2693222795556 -178.79913921467229 4.7734930052891205 -174.02564620938318 134966.31780001524
      4900  1260.7094001061544 -179.07744127799728 5.0517438756781212 -174.02569740231917 134731.37243532075
      5000  1230.9026730523849 -178.95792881083506 4.9323063979888051 -174.02562241284625 139794.21642063351
      5100  1179.8112981170757 -178.75324377492873 4.7275799634847946 -174.02566381144393 135195.28952292111
      5200  1390.7056647164229 -179.59835560155474 5.5726472920805534 -174.0257083094742 128517.20634373344
      5300  1335.1996433421489 -179.37595831141979 5.3502310845729886 -174.02572722684681 125564.50891266248
      5400  1351.4662357351788 -179.44120684281194 5.4154123694057361 -174.02579447340619 132327.19895644955
      5500  1423.9194780473865 -179.73154820490137 5.705737184222615 -174.02581102067876 123538.71243290398
      5600  1471.2407409354789 -179.92118459265646 5.8953565366000511 -174.02582805605641 121383.82661073522
      5700  1351.9757668387672 -179.44314665133226 5.417454093400023 -174.02569255793225 127864.18266251338
      5800  1131.0020515903454 -178.55755932918322 4.5319981646998322 -174.02556116448338 136937.10903572247
      5900  1313.3905660010375 -179.28856172178541 5.2628407050907127 -174.02572101669469 131638.06145216239
      6000  1484.6506011881424 -179.97490391978502 5.9490907115014116 -174.02581320828361 118444.76743163496
      6100  1335.8679445700307 -179.37865654442385 5.3529090106951989 -174.02574753372866 136131.00939410034
      6200  1399.435462662281 -179.63340665315775 5.6076281554779248 -174.02577849767982 124496.62646146699
      6300  1181.3460046861339 -178.75941239161239 4.7337296316879112 -174.02568275992448 141361.94103088282
      6400  1294.2922208616192 -179.21202371338734 5.1863124043692928 -174.02571130901805 136308.40985174524
      6500  1274.4274186551618 -179.13238979428363 5.1067128607476002 -174.02567693353603 132798.17554876997
      6600  1200.3915798394082 -178.835658345979 4.8100464796714508 -174.02561186630754 142846.53682525866
      6700  1108.3063372712384 -178.46672099922051 4.4410549736630749 -174.02566602555743 130983.68254139162
      6800  1489.6016214852482 -179.99469008822143 5.9689297691479677 -174.02576031907347 127160.61876385078
      6900  1116.2931499415929 -178.49875022806651 4.4730586471426692 -174.02569158092385 139851.72039832608
      7000  1491.8065281574768 -180.00364312482165 5.9777649723890436 -174.0258781524326 127104.9775738397
      7100  1486.4813220225014 -179.98227897890251 5.9564265279570279 -174.02585245094548 127624.61642907526
      7200  1318.4060794425868 -179.30872970572932 5.28293819092654 -174.02579151480279 133094.26299606776
      7300  1494.0051313877243 -180.01245188046639 5.986574917331561 -174.02587696313483 126929.96355521993
      7400  1295.8618576724766 -179.21847394201791 5.1926020403041253 -174.02587190171377 134965.60045443868
      7500  1325.7928755698738 -179.33838971641617 5.3125375594199946 -174.02585215699617 137007.23826176915
      7600  1378.7198160765586 -179.55045381155179 5.5246192235533087 -174.02583458799847 125013.70083414414
      7700  1418.4552002531698 -179.70970602276572 5.6838414706825926 -174.02586455208314 131220.46168833881
      7800  1440.3717292534409 -179.79764118029496 5.7716624158932168 -174.02597876440174 129975.03063007048
      7900  1595.1789753250848 -180.41791361745027 6.3919850351956295 -174.02592858225464 119835.13323546931
      8000  1357.7144319987808 -179.46634241568057 5.4404492948114074 -174.02589312086917 133774.72176784792
      8100  1346.9219631293543 -179.42306299605863 5.3972031759913355 -174.0258598200673 129808.11394236688
      8200  1484.2336886994203 -179.97326878200138 5.9474201162703304 -174.02584866573105 133385.331760898
      8300  1227.2457604683384 -178.94337998546845 4.9176529134119535 -174.0257270720565 133630.93337100613
      8400  1216.4260920365004 -178.90001715914099 4.8742978041910634 -174.02571935494993 136371.55287772091
      8500  1369.2483618130686 -179.51245622827835 5.4866664954580617 -174.0257897328203 129097.8981867111
      8600  1345.6893331087506 -179.41818251992731 5.392263948000303 -174.02591857192701 131446.29468950332
      8700  1638.1681316252937 -180.5901460235209 6.564245357076202 -174.0259006664447 120660.09153344188
      8800  1168.1040041615609 -178.70648465597452 4.6806680815431232 -174.02581657443139 138278.10673802899
      8900  1357.2621124547609 -179.46449641427873 5.4386368212261704 -174.02585959305256 136756.24745145332
      9000  1342.1127190127827 -179.40367621471938 5.3779322246440335 -174.02574399007534 128475.7102964393
      9100  1350.5933120956201 -179.43776879792435 5.4119145080828144 -174.02585428984153 128890.03787952282
      9200  1382.770896503788 -179.56674311038736 5.5408521640996495 -174.02589094628772 135820.72031921055
      9300  1239.5813302366298 -178.99284928614946 4.9670823370560697 -174.02576694909339 137516.57145435098
      9400  1298.2754361326463 -179.22811930917004 5.2022734048577677 -174.02584590431226 133718.74998729432
      9500  1352.5268709288721 -179.4455402091167 5.4196624030325316 -174.02587780608417 135489.45251055717
      9600  1445.1338368882593 -179.8166920344309 5.7907444883180661 -174.02594754611283 126511.08979992298
      9700  1371.9407681711705 -179.52341492242707 5.4974551413817236 -174.02595978104534 134007.84161347063
      9800  1407.5926172253583 -179.66627823029583 5.6403143999078589 -174.02596383038798 125364.37633937021
      9900  1575.4768140114986 -180.33903053536682 6.3130372041211951 -174.02599333124562 122853.46631986092
     10000  1253.6498653959402 -179.04928420681819 5.0234558647896019 -174.02582834202857 131988.75864967727
Loop time of 3.74731 on 4 procs for 10000 steps with 32 atoms

Performance: 115.283 ns/day, 0.208 hours/ns, 2668.579 timesteps/s, 85.395 katom-step/s
86.1% CPU use with 4 MPI tasks x 1 OpenMP threads

MPI task timing breakdown:
Section |  min time  |  avg time  |  max time  |%varavg| %total
---------------------------------------------------------------
Pair    | 2.824      | 2.8759     | 2.9262     |   2.2 | 76.75
Neigh   | 0.0061523  | 0.0063024  | 0.006397   |   0.1 |  0.17
Comm    | 0.78854    | 0.83904    | 0.89175    |   4.1 | 22.39
Output  | 0.0065746  | 0.0073625  | 0.0091109  |   1.2 |  0.20
Modify  | 0.0019628  | 0.002084   | 0.0022123  |   0.2 |  0.06
Other   |            | 0.0166     |            |       |  0.44

Nlocal:              8 ave           9 max           7 min
Histogram: 1 0 0 0 0 2 0 0 0 1
Nghost:         216.75 ave         223 max         212 min
Histogram: 1 0 0 2 0 0 0 0 0 1
Neighs:         189.75 ave         207 max         175 min
Histogram: 1 1 0 0 0 0 0 1 0 1
FullNghs:        379.5 ave         426 max         332 min
Histogram: 1 0 0 0 1 1 0 0 0 1

Total # of neighbors = 1518
Ave neighs/atom = 47.4375
Neighbor list builds = 443
Dangerous builds = 0
print "YE3T_NVE_END"
YE3T_NVE_END
Total wall time: 0:00:04
