LAMMPS (22 Jul 2025 - Update 4)
OMP_NUM_THREADS environment is not set. Defaulting to 1 thread.
  using 1 OpenMP thread(s) per MPI task
# 2000-step NVT preparation plus 10000-step NVE stability gate.
units metal
atom_style atomic
boundary p p p
atom_modify map yes sort 0 0.0
newton on
lattice fcc 3.508
Lattice spacing in x,y,z = 3.508 3.508 3.508
region cell block 0 2 0 2 0 2 units lattice
create_box 1 cell
Created orthogonal box = (0 0 0) to (7.016 7.016 7.016)
  1 by 2 by 2 MPI processor grid
create_atoms 1 box
Created 32 atoms
  using lattice units in orthogonal box = (0 0 0) to (7.016 7.016 7.016)
  create_atoms CPU = 0.000 seconds
mass 1 58.693399999999997
reset_atoms id sort yes
Resetting atom IDs ...
WARNING: Communication cutoff is 0.0. No ghost atoms will be generated. Energies and forces may be wrong and atoms may get lost. (src/comm_brick.cpp:212)
displace_atoms all random 0.01 0.01 0.01 79324 units box
Displacing atoms ...
velocity all create 1382.4000000000001 87243 mom yes rot no dist gaussian
neighbor 0.3 bin
neigh_modify every 1 delay 0 check yes
pair_style hybrid/overlay ye3t model_family tagged_cauchy block_policy direct zbl 1.2596748174007975 1.6195819080867397
YE3T configuration: model_family tagged_cauchy, source_realization model_default, chunksize 4096, block_policy direct, plan none, auto_replay none
pair_coeff * * ye3t models/ye3t_augmented_196/model.ye3t.json Ni
YE3T CPU dispatch: PACE-compatible spline/half-complex source with split-real harmonics, exact signed-m expansion/collapse, tiled split-real symmetric-power forward/adjoint, source_model ba9958aa1afbc18463b540fba292a57fc9262e345d9f89bcf19020392bd0cab5, direct_logical_plan 10b095b2d49619344907b105be3b0a21917a1034be1b52dddcc398df9bfeccf8
YE3T CPU source schedule: complete environments in 8/16-center batches, soft cache target 1048576 bytes (761 edges), no source-table replay; chunksize is an outer packing limit, not a memory limit
YE3T self-contained composite: ordinary model 111fe782f1667541a1330ab9223337e41fc09741973b0c782cc62f7df81d9d39, tagged model a3bb3079506c9964681cac53ecb7277285c8a31efd9ddca629c2444574509429, manifest ba9958aa1afbc18463b540fba292a57fc9262e345d9f89bcf19020392bd0cab5, ordinary evaluator compiled_direct, tagged evaluator compiled_direct
YE3T tagged-Cauchy CPU dispatch: real-arithmetic exact moment reduction, evaluator compiled_direct, portfolio 8938ee8699f6345b24454245d316d1f93c649ecacf807f27147f0872074d4290, tag_count 2, feature_count 69, model_self_hash 10b095b2d49619344907b105be3b0a21917a1034be1b52dddcc398df9bfeccf8
Loaded YE3T tagged-Cauchy potential models/ye3t_augmented_196/model.ye3t.json
pair_coeff * * zbl 28 28
timestep 0.0005
thermo 100
thermo_style custom step temp pe ke etotal press
thermo_modify format float %.17g
fix thermostat all nvt temp 1382.4000000000001 1382.4000000000001 0.05
run 2000
Neighbor list info ...
  update: every = 1 steps, delay = 0 steps, check = yes
  max neighbors/atom: 2000, page size: 100000
  master list distance cutoff = 4.9380492
  ghost atom cutoff = 4.9380492
  binsize = 2.4690246, bins = 3 3 3
  2 neighbor lists, perpetual/occasional/extra = 2 0 0
  (1) pair ye3t, perpetual
      attributes: full, newton on, cut 4.938049165633363
      pair build: full/bin/atomonly
      stencil: full/bin/3d
      bin: standard
  (2) pair zbl, perpetual, half/full from (1)
      attributes: half, newton on
      pair build: halffull/newton
      stencil: none
      bin: none
Per MPI rank memory allocation (min/avg/max) = 8.94 | 9.132 | 9.384 Mbytes
   Step          Temp          PotEng         KinEng         TotEng         Press     
         0  1382.4000000000003 -184.94471687492933 5.5393659578880019 -179.40535091704132 42955.198766970694
       100  610.52046310050912 -181.34401240205239 2.446394871161008 -178.89761753089138 79975.513582534157
       200  882.20362880131142 -180.91215602704051 3.5350468383298947 -177.37710918871062 94779.905997641297
       300  1552.0015611822857 -181.46439095004962 6.2189703519981085 -175.24542059805151 91673.90681505778
       400  1131.316380465958 -178.23936611772137 4.5332577007770523 -173.70610841694432 132692.90327627945
       500  1264.6387255440288 -178.26894261816597 5.0674889361295277 -173.20145368203643 131695.03926310371
       600  1421.0899669881831 -179.01946767226082 5.6943991509190708 -173.32506852134173 121235.35952575075
       700  1247.2527835922103 -178.41710276594949 4.9978223454222652 -173.41928042052723 131842.53652725814
       800  1187.8460217971049 -179.62541298724045 4.7597756194701759 -174.86563736777026 111605.26756315651
       900  1303.7514054492719 -180.07206897970264 5.2242159670821273 -174.8478530126205 105439.40304685979
      1000  1100.1597527762822 -178.67914593787896 4.4084110841778186 -174.27073485370113 123732.76679800845
      1100  1489.1554438898152 -178.97745117800582 5.9671419067468436 -173.01030927125899 121345.16219631143
      1200  1811.3755357332986 -177.74364958414048 7.2582985963485056 -170.48535098779197 144101.48768166106
      1300  1560.6886470745692 -177.49007727794424 6.2537800654420925 -171.23629721250214 143353.54033627833
      1400  1682.5728156520888 -179.38161314658009 6.7421777898516666 -172.63943535672843 123658.56747566383
      1500  1183.6926655766499 -178.94029948584694 4.7431328532241031 -174.19716663262284 122839.27501713867
      1600  1252.5734567502391 -179.66463007409766 5.0191426259233021 -174.64548744817435 116224.48955726398
      1700  1384.6286090922456 -180.16403289620052 5.5482961382547717 -174.61573675794574 108068.79328268138
      1800  1526.8013180266944 -179.42585876688008 6.1179913523839708 -173.30786741449612 121006.28028338241
      1900  1674.1242458854379 -178.5760102867871 6.7083238259061888 -171.86768646088092 133533.33197737145
      2000  1414.3229219248035 -178.39553334555671 5.6672831649095379 -172.72825018064717 133874.03123138694
Loop time of 0.936809 on 4 procs for 2000 steps with 32 atoms

Performance: 92.228 ns/day, 0.260 hours/ns, 2134.907 timesteps/s, 68.317 katom-step/s
84.7% CPU use with 4 MPI tasks x 1 OpenMP threads

MPI task timing breakdown:
Section |  min time  |  avg time  |  max time  |%varavg| %total
---------------------------------------------------------------
Pair    | 0.67493    | 0.69038    | 0.70641    |   1.5 | 73.69
Neigh   | 0.0012454  | 0.0012732  | 0.0012949  |   0.1 |  0.14
Comm    | 0.22124    | 0.23748    | 0.25276    |   2.6 | 25.35
Output  | 0.00025231 | 0.00027035 | 0.00031758 |   0.0 |  0.03
Modify  | 0.0046287  | 0.0050397  | 0.0052448  |   0.4 |  0.54
Other   |            | 0.002361   |            |       |  0.25

Nlocal:              8 ave          11 max           6 min
Histogram: 2 0 0 0 0 0 1 0 0 1
Nghost:            213 ave         215 max         210 min
Histogram: 1 0 0 0 1 0 0 0 0 2
Neighs:         189.75 ave         257 max         137 min
Histogram: 2 0 0 0 0 0 0 1 0 1
FullNghs:        379.5 ave         522 max         285 min
Histogram: 2 0 0 0 0 1 0 0 0 1

Total # of neighbors = 1518
Ave neighs/atom = 47.4375
Neighbor list builds = 84
Dangerous builds = 0
unfix thermostat
reset_timestep 0
fix integrate all nve
dump trajectory all custom 100 trajectory.ye3t_augmented_196.lammpstrj id type x y z vx vy vz fx fy fz
dump_modify trajectory sort id
print "YE3T_NVE_BEGIN"
YE3T_NVE_BEGIN
run 10000
Per MPI rank memory allocation (min/avg/max) = 9.733 | 9.792 | 9.845 Mbytes
   Step          Temp          PotEng         KinEng         TotEng         Press     
         0  1414.3229219248033 -178.39553334555421 5.667283164909537 -172.72825018064466 133874.03123138778
       100  1416.0094948919007 -178.40228348709093 5.6740413715642193 -172.72824211552671 134842.17473928878
       200  1446.0784603438428 -178.52280663698298 5.7945296554280787 -172.7282769815549 130794.18906495743
       300  1843.6066913342913 -180.11605553141749 7.3874509155900636 -172.72860461582744 112768.7117204479
       400  1432.2013293209086 -178.46733014683559 5.7389230964136164 -172.72840705042196 131021.68881843182
       500  1608.4122974030531 -179.17348015340986 6.4450118102451555 -172.72846834316471 120677.24741395564
       600  1534.2564046768875 -178.87624578053305 6.1478643654071083 -172.72838141512594 127677.3475652108
       700  1475.3738318999044 -178.64030221647067 5.9119180986582061 -172.72838411781245 126645.72230682179
       800  1471.5223524834978 -178.62479191877696 5.8964849722355002 -172.72830694654147 130229.84925147585
       900  1393.8578119054423 -178.31350459509645 5.5852781491646866 -172.72822644593177 131550.32983898045
      1000  1271.7550270854229 -177.82416215021317 5.0960044153717616 -172.7281577348414 140296.11996698991
      1100  1375.2430264491022 -178.23888465113964 5.5106875032805442 -172.72819714785911 132145.38830365959
      1200  1546.3430716386445 -178.92461055270087 6.1962964194524544 -172.7283141332484 123082.63440976315
      1300  1638.8115422941589 -179.29518099942561 6.5668235451231158 -172.72835745430248 121643.6972890839
      1400  1091.0529419161289 -177.10007842600112 4.3719195057174183 -172.7281589202837 139979.37474801112
      1500  1535.0561877923644 -178.87929376332704 6.1510691479328363 -172.7282246153942 126095.079071977
      1600  1416.1775398463008 -178.4030144699459 5.6747147385345604 -172.72829973141134 131005.41647553998
      1700  1412.9958732675459 -178.39019172728445 5.6619655953519032 -172.72822613193253 129749.44911827837
      1800  1596.2951591969656 -179.1248072580081 6.3964576559585344 -172.72834960204958 123490.43231081105
      1900  1566.7599197943957 -179.00652648221057 6.2781080467971719 -172.7284184354134 123279.48067022776
      2000  1656.6883099545082 -179.36688485032164 6.6384569061002656 -172.72842794422138 121008.93920955651
      2100  1477.0729239310363 -178.64706482184465 5.9187264700098918 -172.72833835183476 124579.80140387076
      2200  1416.9726524853884 -178.40611986319209 5.6779008061601743 -172.72821905703191 128801.18800100002
      2300  1571.898027105643 -179.02705287100207 6.2986967741755704 -172.7283560968265 125238.03498919842
      2400  1651.0968405174513 -179.34450776336689 6.6160515274441574 -172.72845623592272 120718.69009343525
      2500  1568.391430369375 -179.01292498148496 6.2846456148953882 -172.72827936658956 122651.65178439859
      2600  1554.1469129280097 -178.95587427820692 6.2275669148076851 -172.72830736339924 126854.53175623956
      2700  1434.0923777342095 -178.47465645682769 5.7465006493688806 -172.72815580745882 130296.76188160868
      2800  1353.5924634091698 -178.15217816943982 5.4239323008264719 -172.72824586861336 133429.21501472761
      2900  1557.7368908041906 -178.97030908354964 6.2419521876931645 -172.72835689585648 127118.5852749792
      3000  1559.8170218205669 -178.97860071035075 6.2502874068338343 -172.72831330351693 121702.67686957723
      3100  1713.2150557587422 -179.59343443524244 6.8649632222303021 -172.72847121301214 119414.44650606018
      3200  1365.3556463824107 -178.19932097319429 5.4710681336667335 -172.72825283952756 132952.04050751662
      3300  1492.281531243852 -178.70803861003174 5.9796683403914734 -172.72837026964027 128466.60086558266
      3400  1361.8408526477044 -178.1852757812394 5.4569841284851437 -172.72829165275425 133509.37858662679
      3500  1680.0129331724595 -179.46024713561974 6.7319201756561711 -172.72832695996357 118242.8540603743
      3600  1347.428489393672 -178.1274654422557 5.3992328594008674 -172.72823258285484 132889.43501038814
      3700  1612.2295170620805 -179.18867801122065 6.4603076556104604 -172.7283703556102 119940.39333939656
      3800  1437.863579428396 -178.48995943603541 5.7616120977811383 -172.72834733825428 131089.19968181496
      3900  1548.2585865491537 -178.93228568872951 6.2039720112399994 -172.7283136774895 122518.41209893356
      4000  1629.2387354279181 -179.25684756835312 6.5284646906119095 -172.72838287774121 121138.74002770697
      4100  1734.5285580315419 -179.67881549001208 6.9503678004517395 -172.72844768956034 117895.17697033111
      4200  1442.5224979565266 -178.50862302248925 5.7802806848003083 -172.72834233768893 129285.48586077851
      4300  1532.3621458343971 -178.86866079915603 6.1402739480550252 -172.72838685110099 128521.23262788111
      4400  1549.3452735606802 -178.9365766902672 6.2083264361810642 -172.72825025408613 124616.03210882864
      4500  1216.2504824190275 -177.6018032216075 4.8735941251279078 -172.72820909647959 140651.567378993
      4600  1793.9664939962199 -179.91694690065151 7.1885394433118845 -172.72840745733961 114937.2293533826
      4700  1356.0981334847074 -178.16222645686435 5.4339726824223424 -172.72825377444201 135664.90527321279
      4800  1532.9641984537361 -178.87105259103214 6.142686411730101 -172.72836617930204 122257.61014999769
      4900  1678.6473060230815 -179.45485185423445 6.7264480195924898 -172.72840383464197 117630.54677263751
      5000  1341.0517361795437 -178.10193390470272 5.3736807980031571 -172.72825310669955 132196.56313501881
      5100  1722.4829668251866 -179.63043004433302 6.9021003396074692 -172.72832970472555 117181.71238211065
      5200  1219.3808260416884 -177.61429551067499 4.8861376139154213 -172.72815789675957 140198.52958504492
      5300  1485.2676691600655 -178.67976625081883 5.9515633426627055 -172.72820290815613 131514.57119433477
      5400  1572.4560098094553 -179.0293349142346 6.3009326468568405 -172.72840226737776 123038.14324003864
      5500  1573.7559502416204 -179.03450554743017 6.3061415920081849 -172.728363955422 124940.19221838626
      5600  1579.6795067525993 -179.05814927091251 6.3298776649874542 -172.72827160592504 128293.14715816856
      5700  1197.8611660179026 -177.52815195919857 4.7999069482896388 -172.72824501090892 144967.33953538034
      5800  1524.9306504936883 -178.83869610489751 6.1104954669305132 -172.72820063796701 130382.41793841316
      5900  1624.8086519718056 -179.23914817043283 6.5107130604850347 -172.72843510994778 123812.91434767633
      6000  1726.8348615835844 -179.64783969615746 6.9195386625798214 -172.72830103357765 117908.73666833788
      6100  1546.5247954510014 -178.92532994599514 6.1970245984888459 -172.72830534750631 130646.6055384815
      6200  1518.222943740247 -178.81193834067903 6.0836172533559267 -172.72832108732311 125023.9433369382
      6300  1610.8053486451452 -179.18282987117141 6.4546009209120587 -172.72822895025934 126574.24332831039
      6400  1347.9251910659507 -178.12934698595404 5.4012231750364625 -172.72812381091759 134214.84654408539
      6500  1390.0287532460959 -178.29806452327148 5.5699348641615476 -172.72812965910992 134798.66935486958
      6600  1596.7444855083731 -179.12652954849773 6.3982581354676444 -172.72827141303009 125926.48431664141
      6700  1396.6763815024615 -178.32472861332712 5.5965723393235889 -172.72815627400354 129710.27394241955
      6800  1370.5162510434441 -178.21987714596821 5.4917470093766925 -172.72813013659152 136148.54396056678
      6900  1308.3409106914926 -177.9707869148001 5.2426064105878467 -172.72818050421225 136211.35749768652
      7000  1530.9170278825204 -178.86281639439812 6.1344832672189735 -172.72833312717916 125927.39670320744
      7100  1576.2327151998898 -179.04437078524984 6.3160661489349259 -172.7283046363149 123300.07386848114
      7200  1303.2533288572181 -177.95046521019867 5.2222201420543177 -172.72824506814436 137859.78944609116
      7300  1529.6596712577468 -178.85773889496886 6.1294449581302901 -172.72829393683858 129673.19026761063
      7400  1616.3688439030379 -179.20530667786988 6.4768942052280609 -172.72841247264182 123638.14633649825
      7500  1653.9345671962358 -179.35578852408526 6.6274224812652287 -172.72836604282003 123747.35584152323
      7600  1346.7241216388543 -178.12466791155202 5.3964104123791152 -172.72825749917291 133099.70253898704
      7700  1475.7517155309488 -178.64174362479184 5.9134323027394053 -172.72831132205243 132181.49658990224
      7800  1493.002635353854 -178.71096446837305 5.9825578510678605 -172.72840661730518 127038.08410152505
      7900  1574.8562080722081 -179.03884157566927 6.3105503960964784 -172.72829117957278 123133.62353827675
      8000  1474.4662959724219 -178.63651944099615 5.9082815436652538 -172.7282378973309 129966.24427104909
      8100  1587.5034561983555 -179.08963381162084 6.3612287350222187 -172.72840507659862 121761.6429838102
      8200  1473.2261581778218 -178.6315422869136 5.9033122315396049 -172.72823005537398 129288.8362936453
      8300  1569.5429216308687 -179.01761997712174 6.2892597146456222 -172.72836026247612 124926.31331888461
      8400  1693.8968801727281 -179.51591278680121 6.7875540467314091 -172.72835874006981 120736.89972310026
      8500  1618.1125088960457 -179.21214331177089 6.4838811833127172 -172.72826212845817 120138.57741314858
      8600  1428.8768448121177 -178.45380572304498 5.7256016725742622 -172.72820405047071 132433.06795870542
      8700  1709.450400314767 -179.57824289444557 6.8498780050648405 -172.72836488938071 116269.65982272511
      8800  1759.6221913139327 -179.77933959600932 7.0509196074281579 -172.72841998858115 117143.66958623938
      8900  1410.6693886469575 -178.38075423334521 5.65264322143058 -172.72811101191462 129867.01579529323
      9000  1392.457697793704 -178.30785727818761 5.5796678016185917 -172.72818947656901 131611.93951751906
      9100  1678.7548165082051 -179.45507806848445 6.7268788210402688 -172.72819924744419 118937.16141816901
      9200  1479.9092110073775 -178.65832843434805 5.9300916552511262 -172.72823677909693 127055.96800817143
      9300  1687.2063482960168 -179.48898754126503 6.7607446539955731 -172.72824288726946 119248.96512817606
      9400  1414.5024109592719 -178.39614096002879 5.6680023890467979 -172.728138570982 127024.22517909284
      9500  1635.4742836107714 -179.2815468202582 6.5534509343422833 -172.72809588591591 121317.08491075765
      9600  1454.3200075660259 -178.55560496210774 5.8275540666859547 -172.72805089542177 129877.11766452478
      9700  1319.0296156953218 -178.013524385952 5.2854367409062197 -172.72808764504578 136820.14154086431
      9800  1627.2741152715244 -179.24870306394564 6.5205923309370633 -172.72811073300858 126086.87065067103
      9900  1203.9814153643126 -177.55233175586704 4.8244311821461849 -172.72790057372086 135799.09968249753
     10000  1705.7856509116489 -179.56323665312448 6.835193117848533 -172.72804353527596 117240.87946206586
Loop time of 4.53539 on 4 procs for 10000 steps with 32 atoms

Performance: 95.251 ns/day, 0.252 hours/ns, 2204.884 timesteps/s, 70.556 katom-step/s
85.5% CPU use with 4 MPI tasks x 1 OpenMP threads

MPI task timing breakdown:
Section |  min time  |  avg time  |  max time  |%varavg| %total
---------------------------------------------------------------
Pair    | 3.399      | 3.4688     | 3.5151     |   2.4 | 76.48
Neigh   | 0.0070107  | 0.0071521  | 0.0072744  |   0.1 |  0.16
Comm    | 0.97714    | 1.0242     | 1.093      |   4.4 | 22.58
Output  | 0.0077504  | 0.0086759  | 0.010736   |   1.3 |  0.19
Modify  | 0.0030023  | 0.0032142  | 0.0034513  |   0.3 |  0.07
Other   |            | 0.02335    |            |       |  0.51

Nlocal:              8 ave           9 max           7 min
Histogram: 1 0 0 0 0 2 0 0 0 1
Nghost:            213 ave         214 max         212 min
Histogram: 1 0 0 0 0 2 0 0 0 1
Neighs:            189 ave         211 max         174 min
Histogram: 1 0 1 1 0 0 0 0 0 1
FullNghs:          378 ave         425 max         333 min
Histogram: 1 0 0 0 1 1 0 0 0 1

Total # of neighbors = 1512
Ave neighs/atom = 47.25
Neighbor list builds = 471
Dangerous builds = 0
print "YE3T_NVE_END"
YE3T_NVE_END
Total wall time: 0:00:05
