LAMMPS (22 Jul 2025 - Update 4)
OMP_NUM_THREADS environment is not set. Defaulting to 1 thread.
  using 1 OpenMP thread(s) per MPI task
# 2000-step NVT preparation plus 10000-step NVE stability gate.
units metal
atom_style atomic
boundary p p p
atom_modify map yes sort 0 0.0
newton on
lattice fcc 3.508
Lattice spacing in x,y,z = 3.508 3.508 3.508
region cell block 0 2 0 2 0 2 units lattice
create_box 1 cell
Created orthogonal box = (0 0 0) to (7.016 7.016 7.016)
  1 by 1 by 1 MPI processor grid
create_atoms 1 box
Created 32 atoms
  using lattice units in orthogonal box = (0 0 0) to (7.016 7.016 7.016)
  create_atoms CPU = 0.000 seconds
mass 1 58.693399999999997
reset_atoms id sort yes
Resetting atom IDs ...
WARNING: Communication cutoff is 0.0. No ghost atoms will be generated. Energies and forces may be wrong and atoms may get lost. (src/comm_brick.cpp:212)
displace_atoms all random 0.01 0.01 0.01 79324 units box
Displacing atoms ...
velocity all create 1382.4000000000001 87243 mom yes rot no dist gaussian
neighbor 0.3 bin
neigh_modify every 1 delay 0 check yes
pair_style hybrid/overlay ye3t model_family tagged_cauchy block_policy direct zbl 1.2596748174007975 1.6195819080867397
YE3T configuration: model_family tagged_cauchy, source_realization model_default, chunksize 4096, block_policy direct, plan none, auto_replay none
pair_coeff * * ye3t models/ye3t_augmented_196/model.ye3t.json Ni
YE3T CPU dispatch: PACE-compatible spline/half-complex source with split-real harmonics, exact signed-m expansion/collapse, tiled split-real symmetric-power forward/adjoint, source_model ba9958aa1afbc18463b540fba292a57fc9262e345d9f89bcf19020392bd0cab5, direct_logical_plan 10b095b2d49619344907b105be3b0a21917a1034be1b52dddcc398df9bfeccf8
YE3T CPU source schedule: complete environments in 8/16-center batches, soft cache target 1048576 bytes (761 edges), no source-table replay; chunksize is an outer packing limit, not a memory limit
YE3T self-contained composite: ordinary model 111fe782f1667541a1330ab9223337e41fc09741973b0c782cc62f7df81d9d39, tagged model a3bb3079506c9964681cac53ecb7277285c8a31efd9ddca629c2444574509429, manifest ba9958aa1afbc18463b540fba292a57fc9262e345d9f89bcf19020392bd0cab5, ordinary evaluator compiled_direct, tagged evaluator compiled_direct
YE3T tagged-Cauchy CPU dispatch: real-arithmetic exact moment reduction, evaluator compiled_direct, portfolio 8938ee8699f6345b24454245d316d1f93c649ecacf807f27147f0872074d4290, tag_count 2, feature_count 69, model_self_hash 10b095b2d49619344907b105be3b0a21917a1034be1b52dddcc398df9bfeccf8
Loaded YE3T tagged-Cauchy potential models/ye3t_augmented_196/model.ye3t.json
pair_coeff * * zbl 28 28
timestep 0.0005
thermo 100
thermo_style custom step temp pe ke etotal press
thermo_modify format float %.17g
fix thermostat all nvt temp 1382.4000000000001 1382.4000000000001 0.05
run 2000
Neighbor list info ...
  update: every = 1 steps, delay = 0 steps, check = yes
  max neighbors/atom: 2000, page size: 100000
  master list distance cutoff = 4.9380492
  ghost atom cutoff = 4.9380492
  binsize = 2.4690246, bins = 3 3 3
  2 neighbor lists, perpetual/occasional/extra = 2 0 0
  (1) pair ye3t, perpetual
      attributes: full, newton on, cut 4.938049165633363
      pair build: full/bin/atomonly
      stencil: full/bin/3d
      bin: standard
  (2) pair zbl, perpetual, half/full from (1)
      attributes: half, newton on
      pair build: halffull/newton
      stencil: none
      bin: none
Per MPI rank memory allocation (min/avg/max) = 9.74 | 9.74 | 9.74 Mbytes
   Step          Temp          PotEng         KinEng         TotEng         Press     
         0  1382.4000000000003 -184.94471687493433 5.5393659578880019 -179.40535091704632 42955.198766962145
       100  610.52046310045171 -181.34401240205239 2.4463948711607779 -178.89761753089161 79975.513582493106
       200  882.20362880129528 -180.91215602704733 3.5350468383298304 -177.3771091887175 94779.905997658439
       300  1552.0015611822753 -181.46439095005235 6.2189703519980659 -175.2454205980543 91673.906814960981
       400  1131.3163804659514 -178.23936611771524 4.5332577007770256 -173.70610841693821 132692.90327629942
       500  1264.6387255439984 -178.26894261817984 5.067488936129406 -173.20145368205044 131695.03926310604
       600  1421.0899669881189 -179.019467672269 5.6943991509188141 -173.32506852135018 121235.35952573409
       700  1247.2527835922976 -178.41710276595177 4.9978223454226152 -173.41928042052916 131842.5365272671
       800  1187.8460217971769 -179.62541298725023 4.7597756194704646 -174.86563736777975 111605.267563124
       900  1303.7514054493606 -180.07206897969013 5.2242159670824835 -174.84785301260766 105439.40304690305
      1000  1100.1597527763636 -178.67914593786577 4.4084110841781445 -174.27073485368763 123732.76679802695
      1100  1489.155443890098 -178.97745117802037 5.967141906747977 -173.0103092712724 121345.16219627744
      1200  1811.3755357328828 -177.74364958411479 7.2582985963468394 -170.48535098776796 144101.48768175518
      1300  1560.6886470748038 -177.49007727795288 6.2537800654430331 -171.23629721250984 143353.54033629806
      1400  1682.5728156520895 -179.38161314658646 6.7421777898516693 -172.63943535673479 123658.56747562891
      1500  1183.692665576642 -178.94029948584921 4.7431328532240711 -174.19716663262514 122839.27501708116
      1600  1252.573456750288 -179.66463007410925 5.0191426259234975 -174.64548744818575 116224.48955719217
      1700  1384.6286090923966 -180.1640328962028 5.5482961382553775 -174.61573675794742 108068.79328262758
      1800  1526.8013180265891 -179.42585876686326 6.1179913523835499 -173.30786741447972 121006.28028344136
      1900  1674.1242458854424 -178.57601028678801 6.7083238259062066 -171.8676864608818 133533.33197736778
      2000  1414.322921924836 -178.39553334559491 5.6672831649096684 -172.72825018068525 133874.03123133208
Loop time of 2.45154 on 1 procs for 2000 steps with 32 atoms

Performance: 35.243 ns/day, 0.681 hours/ns, 815.814 timesteps/s, 26.106 katom-step/s
100.0% CPU use with 1 MPI tasks x 1 OpenMP threads

MPI task timing breakdown:
Section |  min time  |  avg time  |  max time  |%varavg| %total
---------------------------------------------------------------
Pair    | 2.4412     | 2.4412     | 2.4412     |   0.0 | 99.58
Neigh   | 0.0040759  | 0.0040759  | 0.0040759  |   0.0 |  0.17
Comm    | 0.0024233  | 0.0024233  | 0.0024233  |   0.0 |  0.10
Output  | 0.00030436 | 0.00030436 | 0.00030436 |   0.0 |  0.01
Modify  | 0.0025895  | 0.0025895  | 0.0025895  |   0.0 |  0.11
Other   |            | 0.0009128  |            |       |  0.04

Nlocal:             32 ave          32 max          32 min
Histogram: 1 0 0 0 0 0 0 0 0 0
Nghost:            333 ave         333 max         333 min
Histogram: 1 0 0 0 0 0 0 0 0 0
Neighs:            759 ave         759 max         759 min
Histogram: 1 0 0 0 0 0 0 0 0 0
FullNghs:         1518 ave        1518 max        1518 min
Histogram: 1 0 0 0 0 0 0 0 0 0

Total # of neighbors = 1518
Ave neighs/atom = 47.4375
Neighbor list builds = 84
Dangerous builds = 0
unfix thermostat
reset_timestep 0
fix integrate all nve
dump trajectory all custom 100 trajectory.ye3t_augmented_196.lammpstrj id type x y z vx vy vz fx fy fz
dump_modify trajectory sort id
print "YE3T_NVE_BEGIN"
YE3T_NVE_BEGIN
run 10000
Per MPI rank memory allocation (min/avg/max) = 10.15 | 10.15 | 10.15 Mbytes
   Step          Temp          PotEng         KinEng         TotEng         Press     
         0  1414.322921924836 -178.39553334559946 5.6672831649096684 -172.7282501806898 133874.03123132107
       100  1416.0094948919975 -178.4022834870857 5.6740413715646074 -172.72824211552108 134842.17473911942
       200  1446.0784603437985 -178.52280663696729 5.7945296554279011 -172.72827698153938 130794.18906492041
       300  1843.6066913343313 -180.11605553140021 7.3874509155902244 -172.72860461580999 112768.71172036335
       400  1432.2013293212749 -178.46733014685287 5.7389230964150837 -172.7284070504378 131021.68881838275
       500  1608.4122974027046 -179.17348015340394 6.4450118102437592 -172.72846834316019 120677.24741391333
       600  1534.2564046765535 -178.87624578054101 6.1478643654057707 -172.72838141513523 127677.34756515789
       700  1475.3738319003262 -178.64030221645658 5.9119180986598963 -172.72838411779668 126645.7223067493
       800  1471.5223524836817 -178.62479191879152 5.8964849722362365 -172.72830694655528 130229.84925140004
       900  1393.8578119053068 -178.31350459511327 5.5852781491641439 -172.72822644594913 131550.32983887114
      1000  1271.7550270845929 -177.82416215020953 5.0960044153684363 -172.72815773484109 140296.11996694384
      1100  1375.2430264492855 -178.23888465113805 5.5106875032812788 -172.72819714785678 132145.38830354251
      1200  1546.3430716387231 -178.92461055271338 6.1962964194527697 -172.7283141332606 123082.63440972248
      1300  1638.8115422937042 -179.29518099939878 6.5668235451212933 -172.7283574542775 121643.69728924673
      1400  1091.0529419160957 -177.10007842597429 4.371919505717285 -172.72815892025702 139979.37474814613
      1500  1535.0561877931436 -178.87929376331749 6.1510691479359592 -172.72822461538152 126095.07907204253
      1600  1416.1775398460393 -178.40301446994408 5.6747147385335124 -172.72829973141057 131005.41647545232
      1700  1412.9958732684972 -178.39019172730718 5.6619655953557153 -172.72822613195146 129749.44911829536
      1800  1596.2951591971701 -179.1248072580222 6.3964576559593533 -172.72834960206285 123490.43231079193
      1900  1566.7599197953271 -179.00652648219466 6.2781080468009032 -172.72841843539376 123279.4806702934
      2000  1656.6883099534411 -179.36688485029549 6.6384569060959899 -172.7284279441995 121008.93920965352
      2100  1477.0729239317016 -178.64706482186557 5.9187264700125581 -172.72833835185301 124579.80140379109
      2200  1416.9726524849902 -178.4061198631714 5.6779008061585783 -172.72821905701281 128801.18800099003
      2300  1571.898027103746 -179.0270528709998 6.2986967741679694 -172.72835609683182 125238.03498915816
      2400  1651.0968405173301 -179.34450776339122 6.6160515274436715 -172.72845623594756 120718.69009328171
      2500  1568.3914303678955 -179.01292498148587 6.2846456148894596 -172.72827936659641 122651.65178450853
      2600  1554.1469129284458 -178.95587427819078 6.2275669148094321 -172.72830736338133 126854.53175628639
      2700  1434.0923777351863 -178.47465645683656 5.7465006493727948 -172.72815580746376 130296.76188169027
      2800  1353.5924634075539 -178.15217816946279 5.4239323008199962 -172.7282458686428 133429.21501495791
      2900  1557.736890804553 -178.97030908351644 6.2419521876946167 -172.72835689582183 127118.58527504747
      3000  1559.8170218218268 -178.97860071033529 6.2502874068388827 -172.72831330349641 121702.67686958812
      3100  1713.2150557574814 -179.59343443524631 6.8649632222252501 -172.72847121302107 119414.44650599998
      3200  1365.3556463865336 -178.19932097326591 5.4710681336832545 -172.72825283958267 132952.04050752218
      3300  1492.2815312451798 -178.70803861003492 5.9796683403967936 -172.72837026963813 128466.60086561175
      3400  1361.8408526467247 -178.18527578120393 5.4569841284812179 -172.7282916527227 133509.37858658456
      3500  1680.0129331738244 -179.46024713564202 6.7319201756616405 -172.72832695998039 118242.8540605357
      3600  1347.428489386655 -178.12746544222477 5.3992328593727503 -172.72823258285203 132889.43501077904
      3700  1612.2295170670641 -179.1886780112543 6.4603076556304302 -172.72837035562387 119940.39333922212
      3800  1437.8635794224647 -178.48995943602972 5.7616120977573715 -172.72834733827236 131089.19968204276
      3900  1548.258586555952 -178.93228568876839 6.2039720112672398 -172.72831367750115 122518.41209868755
      4000  1629.23873543384 -179.25684756842179 6.5284646906356398 -172.72838287778615 121138.74002764472
      4100  1734.5285580275668 -179.67881548996615 6.9503678004358109 -172.72844768953036 117895.17697056371
      4200  1442.5224979491525 -178.50862302250061 5.7802806847707595 -172.72834233772986 129285.48586103728
      4300  1532.3621458448374 -178.86866079919764 6.1402739480968602 -172.72838685110079 128521.23262737249
      4400  1549.3452735624394 -178.93657669026948 6.2083264361881136 -172.72825025408136 124616.03210901599
      4500  1216.2504824224943 -177.60180322157748 4.8735941251417989 -172.72820909643568 140651.56737898145
      4600  1793.9664939910083 -179.91694690065538 7.1885394432910008 -172.72840745736437 114937.22935345062
      4700  1356.0981334784694 -178.16222645683297 5.4339726823973464 -172.72825377443561 135664.90527336427
      4800  1532.9641984626799 -178.87105259107375 6.142686411765939 -172.72836617930781 122257.61014966431
      4900  1678.6473060230628 -179.45485185420648 6.7264480195924152 -172.72840383461406 117630.54677254461
      5000  1341.0517361927507 -178.10193390477343 5.3736807980560783 -172.72825310671735 132196.56313459043
      5100  1722.482966816159 -179.63043004431302 6.9021003395712945 -172.72832970474172 117181.71238281729
      5200  1219.3808260227074 -177.61429551059837 4.886137613839364 -172.728157896759 140198.52958594495
      5300  1485.2676691596971 -178.67976625081792 5.9515633426612293 -172.7282029081567 131514.5711943004
      5400  1572.4560098149379 -179.0293349142903 6.3009326468788105 -172.7284022674115 123038.14323987866
      5500  1573.755950276776 -179.0345055475334 6.3061415921490553 -172.72836395538434 124940.19221659121
      5600  1579.6795067529815 -179.05814927090933 6.3298776649889854 -172.72827160592033 128293.1471574226
      5700  1197.8611660134509 -177.52815195919061 4.7999069482718006 -172.72824501091881 144967.33953722543
      5800  1524.9306504965189 -178.83869610490046 6.1104954669418552 -172.72820063795862 130382.41793831412
      5900  1624.8086519908243 -179.23914817049445 6.510713060561244 -172.7284351099332 123812.91434647169
      6000  1726.8348616112257 -179.64783969630889 6.9195386626905817 -172.72830103361832 117908.7366666563
      6100  1546.5247954539632 -178.92532994601356 6.1970245985007137 -172.72830534751284 130646.6055384311
      6200  1518.2229437577121 -178.81193834073088 6.0836172534259108 -172.72832108730498 125023.94333697243
      6300  1610.8053486129295 -179.18282987097632 6.4546009207829682 -172.72822895019334 126574.24332978345
      6400  1347.9251911041474 -178.12934698611025 5.4012231751895197 -172.72812381092072 134214.84654382136
      6500  1390.0287532759321 -178.29806452341268 5.5699348642811035 -172.72812965913158 134798.66935410272
      6600  1596.7444854445712 -179.12652954823875 6.3982581352119858 -172.72827141302676 125926.48431989319
      6700  1396.6763815812187 -178.32472861362226 5.5965723396391738 -172.72815627398307 129710.27393853688
      6800  1370.516251012401 -178.21987714584952 5.4917470092523004 -172.72813013659723 136148.54396052091
      6900  1308.3409107153498 -177.97078691488423 5.242606410683444 -172.72818050420079 136211.35749748044
      7000  1530.9170278768001 -178.86281639440017 6.1344832671960514 -172.72833312720411 125927.39670286293
      7100  1576.2327152134701 -179.04437078530691 6.3160661489893428 -172.72830463631757 123300.0738687424
      7200  1303.2533288494305 -177.9504652101316 5.2222201420231134 -172.72824506810849 137859.78944666678
      7300  1529.6596713400509 -178.85773889531606 6.1294449584600876 -172.72829393685598 129673.19026516695
      7400  1616.3688439233229 -179.20530667792127 6.4768942053093443 -172.72841247261192 123638.14633371767
      7500  1653.9345672434538 -179.3557885241928 6.6274224814544347 -172.72836604273837 123747.3558401856
      7600  1346.7241216355908 -178.12466791154679 5.3964104123660377 -172.72825749918076 133099.70254028778
      7700  1475.7517154610839 -178.64174362449489 5.9134323024594524 -172.72831132203544 132181.49659591174
      7800  1493.002635340345 -178.7109644682771 5.9825578510137296 -172.72840661726337 127038.08410476867
      7900  1574.8562081142784 -179.03884157583525 6.3105503962650564 -172.72829117957019 123133.62353818551
      8000  1474.4662960945891 -178.63651944152252 5.9082815441547858 -172.72823789736773 129966.24426768614
      8100  1587.5034562397227 -179.08963381176181 6.3612287351879795 -172.72840507657384 121761.64298360414
      8200  1473.226158244019 -178.63154228715871 5.9033122318048603 -172.72823005535386 129288.83629166716
      8300  1569.5429217402941 -179.01761997755011 6.2892597150840972 -172.72836026246603 124926.31331355803
      8400  1693.8968801640037 -179.51591278676369 6.7875540466964503 -172.72835874006725 120736.89972179031
      8500  1618.1125090638968 -179.21214331246483 6.4838811839853072 -172.72826212847951 120138.57740589458
      8600  1428.8768447740304 -178.45380572290424 5.7256016724216439 -172.72820405048259 132433.06796022828
      8700  1709.4504003098002 -179.57824289444557 6.8498780050449382 -172.72836488940064 116269.6598152584
      8800  1759.6221914364553 -179.77933959651455 7.0509196079191137 -172.72841998859542 117143.66958145601
      8900  1410.6693884523761 -178.38075423257646 5.6526432206508801 -172.72811101192559 129867.01580147613
      9000  1392.4576977315501 -178.30785727797343 5.5796678013695367 -172.72818947660389 131611.93952853556
      9100  1678.7548167186389 -179.45507806938872 6.7268788218834912 -172.72819924750522 118937.16141581738
      9200  1479.909210898724 -178.65832843395651 5.9300916548157447 -172.72823677914076 127055.9680162022
      9300  1687.2063485750814 -179.4889875423944 6.7607446551138031 -172.7282428872806 119248.96512303437
      9400  1414.5024108182474 -178.39614095944034 5.6680023884817041 -172.72813857095863 127024.22518237864
      9500  1635.4742839694411 -179.28154682175204 6.5534509357794954 -172.72809588597255 121317.08490179632
      9600  1454.3200074861566 -178.55560496189969 5.8275540663659129 -172.72805089553378 129877.11766728701
      9700  1319.0296155290514 -178.01352438526942 5.2854367402399633 -172.72808764502946 136820.1415535034
      9800  1627.2741151084276 -179.24870306339608 6.5205923302835238 -172.72811073311254 126086.87065652234
      9900  1203.9814151214748 -177.55233175501462 4.824431181173118 -172.72790057384151 135799.09968838247
     10000  1705.7856516027157 -179.56323665601212 6.8351931206176824 -172.72804353539445 117240.87943480315
Loop time of 12.1468 on 1 procs for 10000 steps with 32 atoms

Performance: 35.565 ns/day, 0.675 hours/ns, 823.262 timesteps/s, 26.344 katom-step/s
100.0% CPU use with 1 MPI tasks x 1 OpenMP threads

MPI task timing breakdown:
Section |  min time  |  avg time  |  max time  |%varavg| %total
---------------------------------------------------------------
Pair    | 12.092     | 12.092     | 12.092     |   0.0 | 99.55
Neigh   | 0.022791   | 0.022791   | 0.022791   |   0.0 |  0.19
Comm    | 0.012014   | 0.012014   | 0.012014   |   0.0 |  0.10
Output  | 0.0081987  | 0.0081987  | 0.0081987  |   0.0 |  0.07
Modify  | 0.0050487  | 0.0050487  | 0.0050487  |   0.0 |  0.04
Other   |            | 0.006469   |            |       |  0.05

Nlocal:             32 ave          32 max          32 min
Histogram: 1 0 0 0 0 0 0 0 0 0
Nghost:            333 ave         333 max         333 min
Histogram: 1 0 0 0 0 0 0 0 0 0
Neighs:            756 ave         756 max         756 min
Histogram: 1 0 0 0 0 0 0 0 0 0
FullNghs:         1512 ave        1512 max        1512 min
Histogram: 1 0 0 0 0 0 0 0 0 0

Total # of neighbors = 1512
Ave neighs/atom = 47.25
Neighbor list builds = 471
Dangerous builds = 0
print "YE3T_NVE_END"
YE3T_NVE_END
Total wall time: 0:00:14
