LAMMPS (22 Jul 2025 - Update 4)
OMP_NUM_THREADS environment is not set. Defaulting to 1 thread.
  using 1 OpenMP thread(s) per MPI task
# 2000-step NVT preparation plus 10000-step NVE stability gate.
units metal
atom_style atomic
boundary p p p
atom_modify map yes sort 0 0.0
newton on
lattice fcc 3.508
Lattice spacing in x,y,z = 3.508 3.508 3.508
region cell block 0 2 0 2 0 2 units lattice
create_box 1 cell
Created orthogonal box = (0 0 0) to (7.016 7.016 7.016)
  1 by 1 by 1 MPI processor grid
create_atoms 1 box
Created 32 atoms
  using lattice units in orthogonal box = (0 0 0) to (7.016 7.016 7.016)
  create_atoms CPU = 0.000 seconds
mass 1 58.693399999999997
reset_atoms id sort yes
Resetting atom IDs ...
WARNING: Communication cutoff is 0.0. No ghost atoms will be generated. Energies and forces may be wrong and atoms may get lost. (src/comm_brick.cpp:212)
displace_atoms all random 0.01 0.01 0.01 78315 units box
Displacing atoms ...
velocity all create 1382.4000000000001 86234 mom yes rot no dist gaussian
neighbor 0.3 bin
neigh_modify every 1 delay 0 check yes
pair_style hybrid/overlay ye3t model_family tagged_cauchy block_policy direct zbl 1.2596748174007975 1.6195819080867397
YE3T configuration: model_family tagged_cauchy, source_realization model_default, chunksize 4096, block_policy direct, plan none, auto_replay none
pair_coeff * * ye3t models/ye3t_tagged_127/model.ye3t.json Ni
YE3T CPU dispatch: PACE-compatible spline/half-complex source with split-real harmonics, exact signed-m expansion/collapse, tiled split-real symmetric-power forward/adjoint, source_model 1bd585a6138d3702825705775e6b9d8d3b9ccd61b74c756cc08963058a77ecd9, direct_logical_plan 0effb630584d67a523eb220f442366d82004c1fc31e2cdbf8d598078f99e88e6
YE3T CPU source schedule: complete environments in 8/16-center batches, soft cache target 1048576 bytes (992 edges), no source-table replay; chunksize is an outer packing limit, not a memory limit
YE3T self-contained composite: ordinary model 3d39ec21d7a1453531e9e1bc7bb9872b7a5574e7585098d6b6adf932522259fe, tagged model fb888014ca211e6415b58a7d859811e0d12e6c31760628b5eff5990844ad4350, manifest 1bd585a6138d3702825705775e6b9d8d3b9ccd61b74c756cc08963058a77ecd9, ordinary evaluator compiled_direct, tagged evaluator compiled_direct
YE3T tagged-Cauchy CPU dispatch: real-arithmetic exact moment reduction, evaluator compiled_direct, portfolio 6cb232720b3a8c41e5a1f0afbc1fdcd6c30933ef9064a770cff3b61d6a4b7a18, tag_count 2, feature_count 69, model_self_hash 0effb630584d67a523eb220f442366d82004c1fc31e2cdbf8d598078f99e88e6
Loaded YE3T tagged-Cauchy potential models/ye3t_tagged_127/model.ye3t.json
pair_coeff * * zbl 28 28
timestep 0.0005
thermo 100
thermo_style custom step temp pe ke etotal press
thermo_modify format float %.17g
fix thermostat all nvt temp 1382.4000000000001 1382.4000000000001 0.05
run 2000
Neighbor list info ...
  update: every = 1 steps, delay = 0 steps, check = yes
  max neighbors/atom: 2000, page size: 100000
  master list distance cutoff = 4.9380492
  ghost atom cutoff = 4.9380492
  binsize = 2.4690246, bins = 3 3 3
  2 neighbor lists, perpetual/occasional/extra = 2 0 0
  (1) pair ye3t, perpetual
      attributes: full, newton on, cut 4.938049165633363
      pair build: full/bin/atomonly
      stencil: full/bin/3d
      bin: standard
  (2) pair zbl, perpetual, half/full from (1)
      attributes: half, newton on
      pair build: halffull/newton
      stencil: none
      bin: none
Per MPI rank memory allocation (min/avg/max) = 9.367 | 9.367 | 9.367 Mbytes
   Step          Temp          PotEng         KinEng         TotEng         Press     
         0  1382.4000000000001 -184.93300192362909 5.539365957888001 -179.39363596574108 43049.285865097751
       100  565.21324981893179 -181.09734263497728 2.2648459454530072 -178.83249668952428 81042.281338579603
       200  863.78943414321702 -180.88556244551205 3.4612599727114262 -177.42430247280063 93439.682743668323
       300  1502.6722928197532 -181.27910012029804 6.0213047921782774 -175.25779532811976 95147.88875848944
       400  928.37725840701091 -177.534681586516 3.7200675501281739 -173.81461403638784 138022.30530874612
       500  1776.0423122514046 -179.65256036954452 7.116716091040308 -172.53584427850421 125749.07238844072
       600  1306.7612732272762 -178.88435558492932 5.2362767013900129 -173.64807888353931 119968.21998322035
       700  1288.3326557068328 -179.38482248851255 5.1624320424319095 -174.22239044608065 123545.12373754675
       800  1032.7273192488888 -179.37417919670941 4.1382049739787528 -175.23597422273065 114655.33861205379
       900  1261.8126012635184 -180.07201894855621 5.0561644738666374 -175.01585447468958 109010.92923614946
      1000  1344.7480141326271 -179.0866557292656 5.3884920221526089 -173.698163707113 124445.72794531191
      1100  1643.3708493189085 -178.74598108779213 6.5850929824237943 -172.16088810536834 127631.38825555539
      1200  1778.9357366651177 -178.50035225898495 7.1283102292774636 -171.37204202970747 135536.88064304271
      1300  1319.5167504659657 -177.87495397420344 5.2873887213499469 -172.58756525285349 136514.77034002816
      1400  1459.0537381708702 -178.73413214936033 5.8465224305215209 -172.8876097188388 129062.40120868603
      1500  1174.5109462883086 -179.03953688561393 4.7063411118607341 -174.3331957737532 118630.07418809971
      1600  1192.5625984947276 -179.60210442352053 4.7786752464931643 -174.82342917702738 112134.81926597636
      1700  1689.178877321461 -180.46387321319526 6.768648705018788 -173.69522450817647 106673.03125605323
      1800  1075.8712065537932 -177.20398118562974 4.3110853129745168 -172.89289587265523 145535.12294881736
      1900  1497.0637120638742 -177.64600733193208 5.9988308473640544 -171.64717648456804 148677.33852049295
      2000  1576.4335526226544 -179.05443913462449 6.3168709174409532 -172.73756821718354 122582.69748623476
Loop time of 2.27883 on 1 procs for 2000 steps with 32 atoms

Performance: 37.914 ns/day, 0.633 hours/ns, 877.642 timesteps/s, 28.085 katom-step/s
100.0% CPU use with 1 MPI tasks x 1 OpenMP threads

MPI task timing breakdown:
Section |  min time  |  avg time  |  max time  |%varavg| %total
---------------------------------------------------------------
Pair    | 2.2673     | 2.2673     | 2.2673     |   0.0 | 99.50
Neigh   | 0.0043551  | 0.0043551  | 0.0043551  |   0.0 |  0.19
Comm    | 0.0028632  | 0.0028632  | 0.0028632  |   0.0 |  0.13
Output  | 0.00030718 | 0.00030718 | 0.00030718 |   0.0 |  0.01
Modify  | 0.0029891  | 0.0029891  | 0.0029891  |   0.0 |  0.13
Other   |            | 0.0009844  |            |       |  0.04

Nlocal:             32 ave          32 max          32 min
Histogram: 1 0 0 0 0 0 0 0 0 0
Nghost:            339 ave         339 max         339 min
Histogram: 1 0 0 0 0 0 0 0 0 0
Neighs:            756 ave         756 max         756 min
Histogram: 1 0 0 0 0 0 0 0 0 0
FullNghs:         1512 ave        1512 max        1512 min
Histogram: 1 0 0 0 0 0 0 0 0 0

Total # of neighbors = 1512
Ave neighs/atom = 47.25
Neighbor list builds = 86
Dangerous builds = 0
unfix thermostat
reset_timestep 0
fix integrate all nve
dump trajectory all custom 100 trajectory.ye3t_tagged_127.lammpstrj id type x y z vx vy vz fx fy fz
dump_modify trajectory sort id
print "YE3T_NVE_BEGIN"
YE3T_NVE_BEGIN
run 10000
Per MPI rank memory allocation (min/avg/max) = 9.774 | 9.774 | 9.774 Mbytes
   Step          Temp          PotEng         KinEng         TotEng         Press     
         0  1576.4335526226544 -179.05443913462449 6.3168709174409532 -172.73756821718354 122582.69748623476
       100  1665.2097309675805 -179.41021941722602 6.6726027896886944 -172.73761662753734 121731.57220128897
       200  1349.8119762926699 -178.1462873064022 5.4087836451281399 -172.73750366127405 134960.47019488082
       300  1557.6818000311953 -178.97932866617788 6.2417314354126932 -172.73759723076518 129875.93963841132
       400  1633.1133266013533 -179.28156043342182 6.5439904273356229 -172.7375700060862 123520.13433118192
       500  1254.3950293057264 -177.76392570369433 5.0264417846354617 -172.73748391905886 139348.55723939542
       600  1806.5330239919563 -179.97652971186153 7.238894339483152 -172.73763537237838 117745.30311792258
       700  1330.3051883749581 -178.06816548409461 5.3306186878515822 -172.73754679624304 132400.50658249028
       800  1536.7603963970398 -178.89541639071695 6.157898021724705 -172.73751836899226 128310.38480736135
       900  1678.3542862132383 -179.46289847531273 6.7252738703161361 -172.7376246049966 118593.68335641258
      1000  1198.3920858980807 -177.5394561119536 4.8020343784911903 -172.73742173346241 142226.35662188794
      1100  1656.266498084964 -179.37423449081149 6.6367666787342454 -172.73746781207726 127109.56039686495
      1200  1277.1459123334087 -177.85513014480512 5.117606040245585 -172.73752410455953 137869.68541068619
      1300  1223.1645386376888 -177.63872669523886 4.9012991943181392 -172.73742750092072 144694.84836458619
      1400  1695.5402774221284 -179.5317422396065 6.7941392455006619 -172.73760299410583 123758.60020283991
      1500  1551.1816729866171 -178.95323305959232 6.215685007119375 -172.73754805247296 125909.97405688213
      1600  1451.9918604823658 -178.55573976691096 5.8182250311678825 -172.73751473574308 132196.49740087849
      1700  1465.1539256614531 -178.60844887737557 5.8709662752278788 -172.73748260214768 129128.00051295452
      1800  1413.8470037522168 -178.40288818491473 5.6653761300976404 -172.7375120548171 136950.45224276898
      1900  1422.1190805777017 -178.43601140657967 5.6985228754449526 -172.73748853113472 133906.72966411395
      2000  1572.1944438783848 -179.03754466773569 6.2998845353013468 -172.73766013243434 129293.4774121814
      2100  1520.9509301619955 -178.8320890017124 6.0945484708893574 -172.73754053082305 129369.8001220252
      2200  1578.0233968102291 -179.06082031142057 6.3232415256375658 -172.737578785783 126472.78658442636
      2300  1414.4672165515219 -178.40536009382174 5.6678613627850805 -172.73749873103665 133030.76969839947
      2400  1521.2282026719643 -178.83324884195264 6.0956595197194927 -172.73758932223313 131067.25747899458
      2500  1672.5600807710357 -179.43970438058261 6.70205611541195 -172.73764826517066 120666.77921699933
      2600  1653.5132351798566 -179.36339239959062 6.6257341767017888 -172.73765822288883 123627.61084135011
      2700  1557.9801127116859 -178.98058713388627 6.2429267935630959 -172.73766034032317 128863.92651304696
      2800  1564.7490673033931 -179.00764038209678 6.2700504311757923 -172.73758995092098 128641.09113625946
      2900  1619.1229891644921 -179.22547563510545 6.4879302429193064 -172.73754539218615 124586.30996562277
      3000  1389.2499310155233 -178.30438786534609 5.5668140732535036 -172.73757379209258 133211.13634120589
      3100  1730.833486539156 -179.67322008016941 6.9355614106681127 -172.73765866950131 116725.62970168462
      3200  1487.0224342671152 -178.69620515144862 5.9585947996202293 -172.73761035182838 128974.16686470107
      3300  1483.1392823754882 -178.68063471080814 5.9430347595465989 -172.73759995126153 129029.40582196541
      3400  1589.3062492883907 -179.10594117470436 6.3684526432051305 -172.73748853149922 125687.79529964601
      3500  1351.730930960638 -178.15388599037414 5.4164730202456699 -172.73741297012847 136282.58036381289
      3600  1387.122273326085 -178.29584851656176 5.5582884116686415 -172.73756010489313 134159.71606688184
      3700  1789.9111633556688 -179.90993388450573 7.1722894718866463 -172.73764441261909 116618.09637605755
      3800  1582.0301642157231 -179.07694762842272 6.3392969010478444 -172.73765072737487 125465.82737675887
      3900  1394.7830701749892 -178.32659378178579 5.5889857187252936 -172.73760806306049 135999.53521788004
      4000  1690.1705899216711 -179.51024251718485 6.7726225613683342 -172.73761995581651 120726.8918865585
      4100  1427.7434795792685 -178.45864264210536 5.7210602049898451 -172.73758243711552 131461.26920689779
      4200  1587.3311819572214 -179.09808034716173 6.3605384210271669 -172.73754192613455 127403.5784897589
      4300  1495.0925972998778 -178.72860975069977 5.9909324633776739 -172.7376772873221 128032.62923915123
      4400  1594.0922984017579 -179.12529669323339 6.3876306506786307 -172.73766604255476 128189.2105691559
      4500  1816.7417516519531 -180.01766515254104 7.2798013696286494 -172.7378637829124 114608.12796845322
      4600  1521.3995253603314 -178.8340058374198 6.0963460207812368 -172.73765981663857 124881.392285921
      4700  1554.5090577995784 -178.96661916338161 6.2290180526645944 -172.73760111071701 126809.26838927595
      4800  1413.3124044645649 -178.40074867007337 5.6632339562730385 -172.73751471380032 132135.32890898958
      4900  1289.0035597629667 -177.90252278443802 5.1651203982547953 -172.73740238618322 139640.81436381774
      5000  1522.9486132249913 -178.84016357988452 6.1025533157633509 -172.73761026412117 127692.35835156299
      5100  1392.7558585087527 -178.31845760408351 5.5808625508336673 -172.73759505324983 135005.23324929154
      5200  1731.6657379190904 -179.67658877285692 6.9388962956235627 -172.73769247723337 120429.2789966522
      5300  1352.5348478663057 -178.15726896774805 5.4196943671353006 -172.73757460061276 131334.64572641469
      5400  1693.9393819938664 -179.52529511925496 6.7877243542698649 -172.73757076498509 122582.16472930198
      5500  1307.2108097428074 -177.97565851025098 5.2380780232006048 -172.73758048705037 137388.45951710304
      5600  1499.9249290388484 -178.7479103014004 6.0102959283169648 -172.73761437308343 127645.83420124817
      5700  1478.0027286122472 -178.66002633245432 5.9224522573352569 -172.73757407511906 132415.66987707885
      5800  1709.3835814534223 -179.58737963429326 6.8496102575779494 -172.73776937671531 121026.22956654773
      5900  1673.7918631880273 -179.44469404891487 6.7069919470006427 -172.73770210191424 120993.47762253953
      6000  1531.1595820942555 -178.87315844140755 6.1354551975889295 -172.73770324381863 131436.92958318835
      6100  1676.1317029542843 -179.45418820389762 6.716367835852 -172.73782036804562 124602.19421895112
      6200  1568.7359398358178 -179.02369632390077 6.2860260865465625 -172.73767023735419 130150.77278041359
      6300  1450.4782809352173 -178.54969802340031 5.8121600203041455 -172.73753800309618 132297.32096227931
      6400  1375.6635805284677 -178.24984335386375 5.5123726906001966 -172.73747066326357 139540.88359681383
      6500  1244.9558018277646 -177.72606730678638 4.9886181913482925 -172.7374491154381 139503.51833477253
      6600  1492.8835122616817 -178.71949379506822 5.9820805171546825 -172.73741327791353 134876.80402276825
      6700  1219.8318064349235 -177.62540138485252 4.887944721437095 -172.73745666341543 143541.54731785032
      6800  1420.2199166620851 -178.42842775663473 5.6909128031485006 -172.73751495348623 134555.67671368126
      6900  1446.4608200060063 -178.53358956826435 5.796061795254654 -172.7375277730097 133076.1201359407
      7000  1345.6825766001371 -178.12969075264402 5.3922368742345279 -172.7374538784095 137771.40949435288
      7100  1665.5497608942005 -179.41156224718122 6.6739653115348911 -172.73759693564634 122327.04933678088
      7200  1507.9866979899148 -178.78026488252067 6.0425999564476758 -172.73766492607299 128308.80875924238
      7300  1552.5648486828627 -178.95880929884419 6.2212274813421473 -172.73758181750205 125666.49974242802
      7400  1441.5642946554206 -178.51389529182904 5.7764411023734548 -172.73745418945558 131877.96189424969
      7500  1480.6772304662795 -178.67081244932024 5.9331691587563613 -172.73764329056388 130257.93679940674
      7600  1165.9685307423692 -177.40954261757997 4.6721111018250641 -172.73743151575491 147853.00560776854
      7700  1564.5175361152594 -179.00671452878572 6.2691226707723366 -172.73759185801339 126770.61971585396
      7800  1428.5681043123748 -178.46192729254847 5.7243645294795744 -172.73756276306889 134989.80921507321
      7900  1689.2338253871544 -179.50651620401112 6.768868885461897 -172.73764731854922 124440.91924853214
      8000  1274.9036505300858 -177.84604645098068 5.1086211525849956 -172.73742529839569 140720.02770239388
      8100  1422.6129830874288 -178.43803346623758 5.7005019746556718 -172.7375314915819 135666.43576508603
      8200  1588.6358421070379 -179.1034541543122 6.3657662783915381 -172.73768787592067 129002.5076224872
      8300  1564.5638064256671 -179.00700120166562 6.2693080788903437 -172.73769312277528 127175.80919892088
      8400  1688.0616569736792 -179.50187764940318 6.7641719310301003 -172.73770571837309 124395.77932180047
      8500  1615.485885833607 -179.21104440827787 6.4733561352974709 -172.73768827298039 123505.54243377155
      8600  1846.0958736006539 -180.13524676149581 7.3974252294711889 -172.73782153202461 113539.52861460675
      8700  1176.9056553486996 -177.45340207952967 4.7159368655124814 -172.73746521401719 149301.49122864573
      8800  1469.5456523431578 -178.62610111440893 5.8885642072858824 -172.73753690712303 134996.53796923513
      8900  1601.8136927000751 -179.15622762172967 6.4185707756233121 -172.73765684610635 124769.39680374626
      9000  1626.0667125178304 -179.25342830307505 6.5157541902315712 -172.73767411284348 124207.21121127529
      9100  1684.4144912551367 -179.48728211163746 6.749557502771947 -172.73772460886551 122321.22869338423
      9200  1516.9083700438064 -178.81595689591768 6.0783496717708587 -172.73760722414681 130410.34369198917
      9300  1315.817784431546 -178.01005470876561 5.2725667258852127 -172.7374879828804 138678.70374115068
      9400  1787.4087538640731 -179.90004904864315 7.1622621556609225 -172.73778689298223 114352.14859875024
      9500  1547.8392010753596 -178.93991197228587 6.2022915065982396 -172.73762046568763 129869.942756733
      9600  1261.6029481918879 -177.79277520096161 5.0553243804870389 -172.73745082047458 138427.19932562488
      9700  1779.3374849399863 -179.86755195401599 7.1299200605256177 -172.73763189349037 120420.45826135852
      9800  1141.2211878284222 -177.31036916403366 4.5729469026889973 -172.73742226134465 148110.10317457721
      9900  1582.0981111153812 -179.07716100648378 6.3395691686570101 -172.73759183782676 128530.99150983196
     10000  1729.7201709264812 -179.66882215532468 6.9311002832048345 -172.73772187211983 121665.67555540823
Loop time of 11.1193 on 1 procs for 10000 steps with 32 atoms

Performance: 38.851 ns/day, 0.618 hours/ns, 899.335 timesteps/s, 28.779 katom-step/s
100.0% CPU use with 1 MPI tasks x 1 OpenMP threads

MPI task timing breakdown:
Section |  min time  |  avg time  |  max time  |%varavg| %total
---------------------------------------------------------------
Pair    | 11.064     | 11.064     | 11.064     |   0.0 | 99.50
Neigh   | 0.022986   | 0.022986   | 0.022986   |   0.0 |  0.21
Comm    | 0.013028   | 0.013028   | 0.013028   |   0.0 |  0.12
Output  | 0.008113   | 0.008113   | 0.008113   |   0.0 |  0.07
Modify  | 0.0048706  | 0.0048706  | 0.0048706  |   0.0 |  0.04
Other   |            | 0.006054   |            |       |  0.05

Nlocal:             32 ave          32 max          32 min
Histogram: 1 0 0 0 0 0 0 0 0 0
Nghost:            333 ave         333 max         333 min
Histogram: 1 0 0 0 0 0 0 0 0 0
Neighs:            757 ave         757 max         757 min
Histogram: 1 0 0 0 0 0 0 0 0 0
FullNghs:         1514 ave        1514 max        1514 min
Histogram: 1 0 0 0 0 0 0 0 0 0

Total # of neighbors = 1514
Ave neighs/atom = 47.3125
Neighbor list builds = 461
Dangerous builds = 0
print "YE3T_NVE_END"
YE3T_NVE_END
Total wall time: 0:00:13
