LAMMPS (22 Jul 2025 - Update 4)
OMP_NUM_THREADS environment is not set. Defaulting to 1 thread.
  using 1 OpenMP thread(s) per MPI task
# 2000-step NVT preparation plus 10000-step NVE stability gate.
units metal
atom_style atomic
boundary p p p
atom_modify map yes sort 0 0.0
newton on
lattice fcc 3.508
Lattice spacing in x,y,z = 3.508 3.508 3.508
region cell block 0 2 0 2 0 2 units lattice
create_box 1 cell
Created orthogonal box = (0 0 0) to (7.016 7.016 7.016)
  1 by 1 by 1 MPI processor grid
create_atoms 1 box
Created 32 atoms
  using lattice units in orthogonal box = (0 0 0) to (7.016 7.016 7.016)
  create_atoms CPU = 0.000 seconds
mass 1 58.693399999999997
reset_atoms id sort yes
Resetting atom IDs ...
WARNING: Communication cutoff is 0.0. No ghost atoms will be generated. Energies and forces may be wrong and atoms may get lost. (src/comm_brick.cpp:212)
displace_atoms all random 0.01 0.01 0.01 77306 units box
Displacing atoms ...
velocity all create 1382.4000000000001 85225 mom yes rot no dist gaussian
neighbor 0.3 bin
neigh_modify every 1 delay 0 check yes
pair_style hybrid/overlay pace product zbl 1.2596748174007975 1.6195819080867397
ACE version: 2025.12.4p1
Product evaluator is used
pair_coeff * * pace models/ace_127/potential.yace Ni
Loading models/ace_127/potential.yace
Total number of basis functions
	Ni: 4 (r=1) 123 (r>1)
Mapping LAMMPS atom type #1(Ni) -> ACE species type #0
pair_coeff * * zbl 28 28
timestep 0.0005
thermo 100
thermo_style custom step temp pe ke etotal press
thermo_modify format float %.17g
fix thermostat all nvt temp 1382.4000000000001 1382.4000000000001 0.05
run 2000
Neighbor list info ...
  update: every = 1 steps, delay = 0 steps, check = yes
  max neighbors/atom: 2000, page size: 100000
  master list distance cutoff = 4.9380492
  ghost atom cutoff = 4.9380492
  binsize = 2.4690246, bins = 3 3 3
  2 neighbor lists, perpetual/occasional/extra = 2 0 0
  (1) pair pace, perpetual
      attributes: full, newton on, cut 4.938049165633363
      pair build: full/bin/atomonly
      stencil: full/bin/3d
      bin: standard
  (2) pair zbl, perpetual, half/full from (1)
      attributes: half, newton on
      pair build: halffull/newton
      stencil: none
      bin: none
Per MPI rank memory allocation (min/avg/max) = 3.571 | 3.571 | 3.571 Mbytes
   Step          Temp          PotEng         KinEng         TotEng         Press     
         0  1382.4000000000005 -184.94724195469374 5.5393659578880028 -179.40787599680573 49044.984997237203
       100  683.1794341013657 -181.51120553409248 2.7375440541017753 -178.77366147999072 87517.567747519279
       200  1176.5125363052973 -182.02456976371616 4.7143616121513556 -177.31020815156481 93035.677413456928
       300  1189.9838600269088 -180.15747417417151 4.7683420751368768 -175.38913209903464 117513.43535638179
       400  1482.8377436356982 -179.42903692587882 5.9418264743685194 -173.48721045151029 128554.82194825058
       500  1702.2198541635546 -179.16985659771004 6.8209047403028586 -172.34895185740717 138333.31245032995
       600  1470.7527208324168 -178.80462280506683 5.8934010085722246 -172.9112217964946 138887.30740718136
       700  1154.5694114346534 -178.85128945490365 4.6264340955728471 -174.2248553593308 137900.76931509323
       800  1178.0051894179599 -179.4565807869281 4.7203427694424569 -174.73623801748565 133612.514143865
       900  1093.1361215977333 -179.18678263155718 4.3802669410562807 -174.8065156905009 127692.41853658133
      1000  1324.7880863938881 -179.05495274779665 5.3085113043879417 -173.74644144340871 138444.18321903195
      1100  1761.1878764394669 -179.27674673685576 7.0571934087050359 -172.21955332815071 133268.42004446386
      1200  1438.9630404075185 -178.29758209897273 5.7660177088342186 -172.5315643901385 140805.15000847928
      1300  1678.6068776371635 -180.08912633523212 6.7262860204426884 -173.36284031478942 121909.3564143691
      1400  1270.9267435011548 -180.20148884005175 5.0926854296294497 -175.1088034104223 114141.13076419049
      1500  1249.4543284636954 -180.01514779017833 5.0066440777109422 -175.00850371246739 117373.04633359406
      1600  1174.3444105383278 -178.90398129922335 4.7056737923698373 -174.1983075068535 131770.57681516948
      1700  1345.4891627895688 -178.43336724155077 5.3914618526213571 -173.04190538892942 149510.24866135826
      1800  1160.7182813653683 -177.89323326855023 4.6510730139565881 -173.24216025459364 149704.31376658747
      1900  1356.3562123853194 -178.87406210731879 5.4350068212218936 -173.4390552860969 143905.09175754932
      2000  1315.7975250105619 -179.29823514896484 5.2724855450786974 -174.02574960388614 127611.51913436149
Loop time of 2.08352 on 1 procs for 2000 steps with 32 atoms

Performance: 41.468 ns/day, 0.579 hours/ns, 959.915 timesteps/s, 30.717 katom-step/s
100.0% CPU use with 1 MPI tasks x 1 OpenMP threads

MPI task timing breakdown:
Section |  min time  |  avg time  |  max time  |%varavg| %total
---------------------------------------------------------------
Pair    | 2.0749     | 2.0749     | 2.0749     |   0.0 | 99.59
Neigh   | 0.0041252  | 0.0041252  | 0.0041252  |   0.0 |  0.20
Comm    | 0.0018482  | 0.0018482  | 0.0018482  |   0.0 |  0.09
Output  | 0.00029185 | 0.00029185 | 0.00029185 |   0.0 |  0.01
Modify  | 0.0017017  | 0.0017017  | 0.0017017  |   0.0 |  0.08
Other   |            | 0.0006516  |            |       |  0.03

Nlocal:             32 ave          32 max          32 min
Histogram: 1 0 0 0 0 0 0 0 0 0
Nghost:            333 ave         333 max         333 min
Histogram: 1 0 0 0 0 0 0 0 0 0
Neighs:            750 ave         750 max         750 min
Histogram: 1 0 0 0 0 0 0 0 0 0
FullNghs:         1500 ave        1500 max        1500 min
Histogram: 1 0 0 0 0 0 0 0 0 0

Total # of neighbors = 1500
Ave neighs/atom = 46.875
Neighbor list builds = 89
Dangerous builds = 0
unfix thermostat
reset_timestep 0
fix integrate all nve
dump trajectory all custom 100 trajectory.ace_127.lammpstrj id type x y z vx vy vz fx fy fz
dump_modify trajectory sort id
print "YE3T_NVE_BEGIN"
YE3T_NVE_BEGIN
run 10000
Per MPI rank memory allocation (min/avg/max) = 3.572 | 3.572 | 3.572 Mbytes
   Step          Temp          PotEng         KinEng         TotEng         Press     
         0  1315.7975250105619 -179.29823514896427 5.2724855450786974 -174.02574960388557 127611.51913439929
       100  1523.9704256388964 -180.13249874645138 6.1066477840076603 -174.02585096244371 120295.92913064559
       200  1262.9235293482059 -179.08629049130707 5.0606160343512867 -174.02567445695578 135545.00238871557
       300  1132.8059978956815 -178.56485231063547 4.5392266938908303 -174.02562561674463 138309.09967449724
       400  1357.4854446216298 -179.46528756903939 5.4395317276226223 -174.02575584141675 129435.01928114788
       500  1449.6631481494353 -179.83466658483886 5.8088937306595279 -174.02577285417934 123553.32752075783
       600  1419.8635015121251 -179.71530630390654 5.6894846246556163 -174.02582167925092 125291.79386194734
       700  1268.5045178412013 -179.10867135169164 5.0829794151885723 -174.02569193650308 134284.82785998515
       800  1150.7350681218256 -178.63673830905222 4.6110696346223747 -174.02566867442985 138582.06152851312
       900  1393.0087543070281 -179.60760168123585 5.581875920607871 -174.02572576062798 126071.11392041921
      1000  1357.2929407666643 -179.46453251763035 5.438760352260239 -174.02577216537011 126573.02080862112
      1100  1372.6649822118784 -179.52608522524537 5.5003571137510248 -174.02572811149435 129623.54593726109
      1200  1413.1043729420728 -179.68809604878362 5.6624003605454192 -174.02569568823822 126218.38637517141
      1300  985.6876891840833 -177.97527705424801 3.9497141424881361 -174.02556291175986 143314.72256486668
      1400  1428.3993724212546 -179.74940829167656 5.7236884099094922 -174.02571988176706 127994.41944615309
      1500  1456.0968569947458 -179.86050408606164 5.8346740169447395 -174.02583006911689 118601.21390342593
      1600  1291.0066621955521 -179.19888835875031 5.1731469588922563 -174.02574139985805 129973.04543241567
      1700  1518.6369842764664 -180.11103818851961 6.0852763404881021 -174.02576184803152 121176.00126701986
      1800  1182.5908829321017 -178.76443785815786 4.7387179391079268 -174.02571991904995 132121.22740884073
      1900  1505.6010795860532 -180.05880982154594 6.0330406296429437 -174.02576919190298 123494.9868375549
      2000  1262.7787392867881 -179.08578492276246 5.0600358512369512 -174.0257490715255 128339.78524148058
      2100  1379.4674923382722 -179.55334684775849 5.5276152105553757 -174.02573163720311 130129.71093204038
      2200  1311.2174832195167 -179.27984748074769 5.2541330222321845 -174.02571445851549 132980.11031684154
      2300  1212.9113185375836 -178.88583691851875 4.8602138800955874 -174.02562303842316 134387.52815901794
      2400  1230.2509972939226 -178.95530726839914 4.9296950911948194 -174.02561217720432 138024.49934445665
      2500  1272.5044007544966 -179.12470151080586 5.0990072039945948 -174.02569430681126 129819.1878221501
      2600  1292.7644073490935 -179.20587127477623 5.1801903570882706 -174.02568091768796 133583.92674721114
      2700  1262.9862507751927 -179.08654632149364 5.0608673631544416 -174.0256789583392 132972.11714093821
      2800  1261.7732382683157 -179.08175866076493 5.0560067438061438 -174.0257519169588 135181.36664821953
      2900  1462.1137464127021 -179.88460478570946 5.8587840809017733 -174.02582070480767 128134.20954583204
      3000  1498.5695535846453 -180.03082017028217 6.0048648514570324 -174.02595531882514 121381.39214744192
      3100  1180.7809676829415 -178.7572031812978 4.731465491974058 -174.02573768932373 130709.55804709543
      3200  1374.4855826353462 -179.53343511634509 5.507652377067485 -174.02578273927762 129565.08557051409
      3300  1526.5215387808985 -180.14286599286467 6.116870258901705 -174.02599573396296 122811.99737831306
      3400  1562.5273602942339 -180.28712591348963 6.2611479079010977 -174.02597800558854 120181.38801867705
      3500  1458.2671876492302 -179.8692674929944 5.8433706718527336 -174.02589682114166 124971.88705883255
      3600  1405.4589753849027 -179.6576012618724 5.6317647594439233 -174.02583650242849 130580.73287908947
      3700  1401.7136438011792 -179.64260180316364 5.6167569742327821 -174.02584482893087 133242.30540608661
      3800  1479.0750007548061 -179.95268935729499 5.9267489209666824 -174.02594043632831 126095.46526415762
      3900  1285.8146346014223 -179.17815999476082 5.1523421694627585 -174.02581782529805 127073.7850969693
      4000  1530.7002839341653 -180.15950370022949 6.1336147602390136 -174.02588893999047 120939.48664007446
      4100  1343.8499267755269 -179.41071798288911 5.3848933281905644 -174.02582465469854 134789.99253903
      4200  1398.0891158765721 -179.62807886029711 5.6022332570749533 -174.02584560322217 130263.48658585372
      4300  1555.9168709595845 -180.26061226899665 6.2346592507936478 -174.02595301820301 122395.35370667958
      4400  1186.0346831256627 -178.77828438830477 4.7525174685914191 -174.02576691971336 138051.26036962093
      4500  1402.9178848579918 -179.64733355840625 5.6215824458149575 -174.02575111259128 132579.90346108176
      4600  1361.7272411911122 -179.48245970768932 5.4565288800512075 -174.02593082763812 129329.67831265024
      4700  1436.7353649233255 -179.78291799869186 5.7570912694951266 -174.02582672919672 125950.75919068106
      4800  1191.2693222790222 -178.79913921467073 4.7734930052869826 -174.02564620938375 134966.31780002336
      4900  1260.7094001070852 -179.07744127800655 5.0517438756818507 -174.02569740232468 134731.37243526545
      5000  1230.9026730524047 -178.95792881083244 4.932306397988885 -174.02562241284355 139794.21642056471
      5100  1179.8112981177583 -178.75324377493047 4.7275799634875302 -174.02566381144294 135195.28952290304
      5200  1390.7056647158263 -179.59835560155301 5.5726472920781625 -174.02570830947485 128517.20634354212
      5300  1335.1996433433571 -179.37595831142556 5.35023108457783 -174.02572722684772 125564.50891256196
      5400  1351.4662357310365 -179.44120684279417 5.4154123693891369 -174.02579447340503 132327.19895665254
      5500  1423.9194780497687 -179.73154820491411 5.7057371842321611 -174.02581102068194 123538.7124324961
      5600  1471.2407409342659 -179.92118459265058 5.895356536595191 -174.02582805605539 121383.82661076762
      5700  1351.9757668309301 -179.44314665129977 5.4174540933686188 -174.02569255793117 127864.18266275924
      5800  1131.0020515955978 -178.55755932920212 4.5319981647208785 -174.02556116448125 136937.10903559692
      5900  1313.3905659997595 -179.28856172178055 5.2628407050855914 -174.02572101669497 131638.06145209377
      6000  1484.6506011794202 -179.97490391974713 5.94909071146646 -174.02581320828068 118444.76743210998
      6100  1335.867944580393 -179.37865654446352 5.3529090107367212 -174.02574753372681 136131.00939340453
      6200  1399.4354626531126 -179.6334066531218 5.6076281554411871 -174.02577849768062 124496.6264620322
      6300  1181.3460046888333 -178.7594123916225 4.7337296316987283 -174.02568275992377 141361.94103064822
      6400  1294.2922208619393 -179.21202371338961 5.1863124043705762 -174.02571130901904 136308.40985175647
      6500  1274.4274186537975 -179.13238979428075 5.1067128607421335 -174.02567693353862 132798.17554856857
      6600  1200.3915798500375 -178.83565834602348 4.8100464797140434 -174.02561186630945 142846.53682464152
      6700  1108.3063372725362 -178.46672099922793 4.4410549736682752 -174.02566602555964 130983.68254133733
      6800  1489.6016214792637 -179.99469008819793 5.9689297691239878 -174.02576031907395 127160.61876421467
      6900  1116.2931499630747 -178.49875022815326 4.4730586472287479 -174.0256915809245 139851.72039736476
      7000  1491.8065281429765 -180.00364312476353 5.9777649723309398 -174.0258781524326 127104.97757426438
      7100  1486.481322031533 -179.98227897893597 5.9564265279932176 -174.02585245094275 127624.61642937853
      7200  1318.4060794282511 -179.308729705671 5.2829381908690953 -174.02579151480191 133094.26299660731
      7300  1494.0051313568711 -180.01245188034147 5.9865749172079301 -174.02587696313356 126929.96355682425
      7400  1295.8618576789779 -179.21847394204468 5.1926020403301765 -174.02587190171451 134965.60045423754
      7500  1325.7928755787686 -179.33838971645142 5.3125375594556372 -174.02585215699577 137007.23826045962
      7600  1378.7198160729424 -179.55045381153613 5.524619223538819 -174.02583458799731 125013.70083508793
      7700  1418.4552002722937 -179.7097060228441 5.6838414707592229 -174.02586455208487 131220.46168737457
      7800  1440.3717292325357 -179.79764118021279 5.7716624158094483 -174.02597876440333 129975.03063113145
      7900  1595.1789752901286 -180.41791361731453 6.3919850350555576 -174.02592858225896 119835.13323742592
      8000  1357.7144319855352 -179.46634241562404 5.4404492947583307 -174.0258931208657 133774.7217684144
      8100  1346.9219631354729 -179.42306299608566 5.3972031760158528 -174.0258598200698 129808.11394212919
      8200  1484.233688696997 -179.97326878198996 5.9474201162606199 -174.02584866572934 133385.33176079777
      8300  1227.2457604551842 -178.943379985409 4.9176529133592437 -174.02572707204976 133630.9333717539
      8400  1216.4260920332842 -178.90001715912612 4.8742978041781759 -174.02571935494794 136371.55287848023
      8500  1369.2483618076451 -179.51245622825547 5.4866664954363289 -174.02578973281913 129097.89818712443
      8600  1345.689333114535 -179.41818251994894 5.3922639480234817 -174.02591857192547 131446.29469095927
      8700  1638.1681316251345 -180.59014602351863 6.5642453570755634 -174.02590066644308 120660.09153239416
      8800  1168.1040042472757 -178.7064846563147 4.680668081886588 -174.02581657442812 138278.10673439768
      8900  1357.2621124667564 -179.46449641432349 5.4386368212742369 -174.02585959304926 136756.2474479849
      9000  1342.1127189957017 -179.40367621464551 5.3779322245755887 -174.02574399006991 128475.71029725904
      9100  1350.5933121544836 -179.43776879815448 5.4119145083186835 -174.02585428983579 128890.03787721621
      9200  1382.7708963974151 -179.56674310995552 5.5408521636734056 -174.02589094628212 135820.72032339207
      9300  1239.5813303449418 -178.99284928658111 4.9670823374900825 -174.02576694909104 137516.57145111304
      9400  1298.2754361495929 -179.22811930923393 5.2022734049256742 -174.02584590430826 133718.74998424915
      9500  1352.5268709221464 -179.44554020909032 5.4196624030055816 -174.02587780608474 135489.45251183902
      9600  1445.1338369367345 -179.81669203462391 5.7907444885123089 -174.02594754611161 126511.0897976634
      9700  1371.9407681083808 -179.5234149221796 5.4974551411301213 -174.02595978104947 134007.84161777722
      9800  1407.5926173458918 -179.6662782307757 5.640314400390845 -174.02596383038485 125364.37633249852
      9900  1575.4768139920743 -180.33903053528826 6.3130372040433613 -174.0259933312449 122853.46631766127
     10000  1253.6498653762799 -179.04928420673636 5.0234558647108214 -174.02582834202553 131988.75864866219
Loop time of 10.4045 on 1 procs for 10000 steps with 32 atoms

Performance: 41.521 ns/day, 0.578 hours/ns, 961.125 timesteps/s, 30.756 katom-step/s
100.0% CPU use with 1 MPI tasks x 1 OpenMP threads

MPI task timing breakdown:
Section |  min time  |  avg time  |  max time  |%varavg| %total
---------------------------------------------------------------
Pair    | 10.358     | 10.358     | 10.358     |   0.0 | 99.56
Neigh   | 0.021791   | 0.021791   | 0.021791   |   0.0 |  0.21
Comm    | 0.0091646  | 0.0091646  | 0.0091646  |   0.0 |  0.09
Output  | 0.0077666  | 0.0077666  | 0.0077666  |   0.0 |  0.07
Modify  | 0.0032924  | 0.0032924  | 0.0032924  |   0.0 |  0.03
Other   |            | 0.004087   |            |       |  0.04

Nlocal:             32 ave          32 max          32 min
Histogram: 1 0 0 0 0 0 0 0 0 0
Nghost:            333 ave         333 max         333 min
Histogram: 1 0 0 0 0 0 0 0 0 0
Neighs:            759 ave         759 max         759 min
Histogram: 1 0 0 0 0 0 0 0 0 0
FullNghs:         1518 ave        1518 max        1518 min
Histogram: 1 0 0 0 0 0 0 0 0 0

Total # of neighbors = 1518
Ave neighs/atom = 47.4375
Neighbor list builds = 443
Dangerous builds = 0
print "YE3T_NVE_END"
YE3T_NVE_END
Total wall time: 0:00:12
