LAMMPS (22 Jul 2025 - Update 4)
OMP_NUM_THREADS environment is not set. Defaulting to 1 thread.
  using 1 OpenMP thread(s) per MPI task
# 2000-step NVT preparation plus 10000-step NVE stability gate.
units metal
atom_style atomic
boundary p p p
atom_modify map yes sort 0 0.0
newton on
lattice diamond 5.7629999999999999
Lattice spacing in x,y,z = 5.763 5.763 5.763
region cell block 0 2 0 2 0 2 units lattice
create_box 1 cell
Created orthogonal box = (0 0 0) to (11.526 11.526 11.526)
  1 by 1 by 1 MPI processor grid
create_atoms 1 box
Created 64 atoms
  using lattice units in orthogonal box = (0 0 0) to (11.526 11.526 11.526)
  create_atoms CPU = 0.000 seconds
mass 1 72.629999999999995
reset_atoms id sort yes
Resetting atom IDs ...
WARNING: Communication cutoff is 0.0. No ghost atoms will be generated. Energies and forces may be wrong and atoms may get lost. (src/comm_brick.cpp:212)
displace_atoms all random 0.01 0.01 0.01 77295 units box
Displacing atoms ...
velocity all create 969.12000000000012 85214 mom yes rot no dist gaussian
neighbor 0.3 bin
neigh_modify every 1 delay 0 check yes
pair_style hybrid/overlay pace product zbl 1.4510643826302052 1.8656542062388353
ACE version: 2025.12.4p1
Product evaluator is used
pair_coeff * * pace models/ace_127/potential.yace Ge
Loading models/ace_127/potential.yace
Total number of basis functions
	Ge: 4 (r=1) 123 (r>1)
Mapping LAMMPS atom type #1(Ge) -> ACE species type #0
pair_coeff * * zbl 32 32
timestep 0.0005
thermo 100
thermo_style custom step temp pe ke etotal press
thermo_modify format float %.17g
fix thermostat all nvt temp 969.12000000000012 969.12000000000012 0.05
run 2000
Neighbor list info ...
  update: every = 1 steps, delay = 0 steps, check = yes
  max neighbors/atom: 2000, page size: 100000
  master list distance cutoff = 5.3761617
  ghost atom cutoff = 5.3761617
  binsize = 2.6880808, bins = 5 5 5
  2 neighbor lists, perpetual/occasional/extra = 2 0 0
  (1) pair pace, perpetual
      attributes: full, newton on, cut 5.376161693688304
      pair build: full/bin/atomonly
      stencil: full/bin/3d
      bin: standard
  (2) pair zbl, perpetual, half/full from (1)
      attributes: half, newton on
      pair build: halffull/newton
      stencil: none
      bin: none
Per MPI rank memory allocation (min/avg/max) = 3.574 | 3.574 | 3.574 Mbytes
   Step          Temp          PotEng         KinEng         TotEng         Press     
         0  969.12000000000046 -287.46430945384361 7.8919212785112034 -279.57238817533243 7139.8272246980841
       100  571.36918721747054 -283.31851963826614 4.6528816312605308 -278.66563800700561 15906.694398012976
       200  294.39345618045144 -279.50746676471118 2.3973604724749866 -277.1101062922362 22025.281743595107
       300  789.28982674908673 -281.19939128622332 6.4274941995145456 -274.77189708670875 20824.888449661979
       400  1038.5062038175263 -280.54134187607258 8.4569601367977398 -272.08438173927482 23672.499339341877
       500  984.2475559365372 -278.18175843732655 8.0151108531639021 -270.16664758416266 27215.077865562624
       600  906.19640586387459 -276.58458928829452 7.3795099656879266 -269.20507932260659 30238.787465312311
       700  1092.8714818161413 -278.20932906431551 8.8996777509729146 -269.30965131334261 27592.244257258109
       800  902.34188074508938 -277.53244470166402 7.3481210677150264 -270.18432363394902 27229.616923671376
       900  901.19276879736549 -277.41116997948154 7.338763401965033 -270.07240657751652 30058.626180096304
      1000  1049.1848735219166 -278.67085138127948 8.5439206996447243 -270.12693068163475 26920.163396311269
      1100  988.06621859812685 -279.4238469516464 8.0462077091925206 -271.37763924245388 25328.816636670497
      1200  892.85002180813672 -279.67293622343601 7.2708251667768939 -272.40211105665912 25856.470499575134
      1300  887.97520926524976 -279.51219892818972 7.2311276712799861 -272.28107125690974 26515.003761616732
      1400  1022.4983904718018 -278.70367311979982 8.3266022835230586 -270.37707083627674 27718.867963261804
      1500  974.27913256651857 -277.55262144469026 7.9339341025994115 -269.61868734209082 29425.186638564624
      1600  1082.8423835561734 -278.69639655099223 8.8180069011688449 -269.87838964982336 27738.365223877441
      1700  983.32358447082993 -278.74587861348505 8.0075865939690107 -270.73829201951605 26350.940273268643
      1800  805.46008924063665 -277.74537453612322 6.5591749393983312 -271.18619959672492 27750.125521691654
      1900  1013.8055874720321 -278.68766140964885 8.2558134060220389 -270.43184800362684 26843.475872146868
      2000  1234.3843377330063 -280.15772693610523 10.052072004309133 -270.1056549317961 28478.118610034438
Loop time of 3.41728 on 1 procs for 2000 steps with 64 atoms

Performance: 25.283 ns/day, 0.949 hours/ns, 585.262 timesteps/s, 37.457 katom-step/s
100.0% CPU use with 1 MPI tasks x 1 OpenMP threads

MPI task timing breakdown:
Section |  min time  |  avg time  |  max time  |%varavg| %total
---------------------------------------------------------------
Pair    | 3.406      | 3.406      | 3.406      |   0.0 | 99.67
Neigh   | 0.0050389  | 0.0050389  | 0.0050389  |   0.0 |  0.15
Comm    | 0.0021742  | 0.0021742  | 0.0021742  |   0.0 |  0.06
Output  | 0.00027725 | 0.00027725 | 0.00027725 |   0.0 |  0.01
Modify  | 0.0028886  | 0.0028886  | 0.0028886  |   0.0 |  0.08
Other   |            | 0.0008821  |            |       |  0.03

Nlocal:             64 ave          64 max          64 min
Histogram: 1 0 0 0 0 0 0 0 0 0
Nghost:            363 ave         363 max         363 min
Histogram: 1 0 0 0 0 0 0 0 0 0
Neighs:            900 ave         900 max         900 min
Histogram: 1 0 0 0 0 0 0 0 0 0
FullNghs:         1800 ave        1800 max        1800 min
Histogram: 1 0 0 0 0 0 0 0 0 0

Total # of neighbors = 1800
Ave neighs/atom = 28.125
Neighbor list builds = 72
Dangerous builds = 0
unfix thermostat
reset_timestep 0
fix integrate all nve
dump trajectory all custom 100 trajectory.ace_127.lammpstrj id type x y z vx vy vz fx fy fz
dump_modify trajectory sort id
print "YE3T_NVE_BEGIN"
YE3T_NVE_BEGIN
run 10000
Per MPI rank memory allocation (min/avg/max) = 3.574 | 3.574 | 3.574 Mbytes
   Step          Temp          PotEng         KinEng         TotEng         Press     
         0  1234.3843377330063 -280.15772693610495 10.052072004309133 -270.10565493179581 28478.118610040146
       100  1020.3198472242543 -278.41430940270976 8.308861558110852 -270.10544784459893 29237.986987722459
       200  902.08637175270371 -277.45154396373368 7.3460403585625382 -270.10550360517112 29493.232234982879
       300  967.20645978178698 -277.9819312337234 7.876338575888818 -270.10559265783456 28767.080848069505
       400  967.18077813741922 -277.9816721090105 7.876129440265105 -270.10554266874539 29122.347836114568
       500  1054.2729671454122 -278.69091361698327 8.5853550259761615 -270.10555859100708 27589.661293057445
       600  875.13827115040124 -277.23199865042847 7.1265914889088613 -270.10540716151962 29797.42433899489
       700  1105.1245194946262 -279.10504578615189 8.9994590048746339 -270.10558678127728 28613.549392888937
       800  1094.2104676540778 -279.01624694582586 8.9105816336974861 -270.10566531212839 28695.313925313501
       900  993.47057304270913 -278.19577121127054 8.0902174704582208 -270.1055537408123 29184.511974981498
      1000  898.06455976977998 -277.41882855874053 7.3132891785577847 -270.10553938018273 28476.064177040655
      1100  1033.5757347696892 -278.52245140151098 8.4168094087231289 -270.10564199278787 28653.662746338188
      1200  1041.8781628090192 -278.59008880923193 8.4844193110127275 -270.10566949821919 26658.836535971157
      1300  917.30723047317701 -277.5755114952205 7.4699897340922101 -270.10552176112827 31017.29598849556
      1400  1178.4382776303673 -279.70206878244028 9.5964814663232474 -270.10558731611701 28033.784813729366
      1500  948.34903583290998 -277.82827741591075 7.7227752345894443 -270.1055021813213 30596.790502046726
      1600  1077.4387686043931 -278.87971292695994 8.7740031618807937 -270.10570976507915 26521.464494259108
      1700  958.79473337929835 -277.91348603696764 7.8078386144962 -270.10564742247146 28783.205401751304
      1800  1007.5400782480687 -278.31038573103706 8.2047909262823726 -270.10559480475467 26573.361541734259
      1900  915.66140168748393 -277.56212483702171 7.4565871098407275 -270.105537727181 29315.573963734634
      2000  1009.9493139033522 -278.32997410618196 8.2244102697412629 -270.10556383644069 29848.147289008721
      2100  1294.0248212227639 -280.64346207089221 10.537747669565773 -270.10571440132645 26079.411928833542
      2200  916.63172562530167 -277.56999097837826 7.4644888352533822 -270.10550214312485 29834.653879734342
      2300  820.29566328899409 -276.78553186243266 6.6799867919152129 -270.10554507051745 27619.353239380001
      2400  988.48039370369145 -278.15521107636511 8.0495804982471633 -270.10563057811794 26677.239368516675
      2500  1111.6083783513477 -279.15785074625626 9.0522595906413343 -270.10559115561495 27631.869149891136
      2600  1010.263254665765 -278.33252536266542 8.226966811534929 -270.10555855113051 29219.8105354176
      2700  1044.4712505925133 -278.6111668220729 8.5055358338949354 -270.10563098817795 26570.449600537762
      2800  933.80782788387228 -277.70993634868069 7.6043605197674751 -270.10557582891323 29137.232828389278
      2900  990.68442863619782 -278.17312345019957 8.0675288123696962 -270.10559463782988 28308.69815682057
      3000  984.80327263637002 -278.12518771493757 8.0196362704994577 -270.10555144443811 27998.066966490256
      3100  1076.6503151805184 -278.87321142474121 8.7675824788353598 -270.10562894590583 26755.60494117835
      3200  1078.3181079664955 -278.88675551303731 8.7811639644881172 -270.10559154854917 26889.141234755898
      3300  897.40762689756048 -277.41343000869665 7.3079395185437273 -270.10549049015293 30000.825148991815
      3400  941.665739528838 -277.77388293279625 7.668350552080879 -270.10553238071537 28689.03500116547
      3500  1179.9220228852041 -279.7141994861002 9.6085641813105926 -270.10563530478959 26575.726934529779
      3600  933.505352053141 -277.70741060078672 7.6018973413738982 -270.10551325941282 29105.763027343302
      3700  1000.5472199688318 -278.25339546200121 8.14784536014864 -270.10555010185254 27849.326310675635
      3800  1052.4342251578028 -278.67597060380677 8.5703814344521945 -270.10558916935457 28023.934711412567
      3900  970.52869208082961 -278.0089150817293 7.9033928062967886 -270.10552227543252 27874.885612412727
      4000  979.65350884468558 -278.08320390371335 7.977699739990439 -270.10550416372291 28502.022594130707
      4100  1004.426215783047 -278.28499051774969 8.1794335325168301 -270.10555698523285 27722.763118234245
      4200  1144.920511362302 -279.42914154246847 9.3235332526664134 -270.10560828980203 27256.225847532682
      4300  1059.0534640464818 -278.72987809192625 8.6242844725002339 -270.10559361942603 27609.747090983768
      4400  826.73939741127413 -276.8379257033526 6.732460626355417 -270.10546507699718 26887.20736299875
      4500  903.18445082032315 -277.46048712454206 7.3549824437111617 -270.1055046808309 28075.740688095535
      4600  1121.3705637729749 -279.23733125898355 9.1317568653376693 -270.1055743936459 26816.6710299478
      4700  1056.2007849074878 -278.70654634082172 8.601053996194107 -270.10549234462763 27940.761333546125
      4800  936.24670822714427 -277.72971377104199 7.6242212714564417 -270.10549249958552 27624.331697457255
      4900  993.17952862767493 -278.19338101948813 8.0878473825310291 -270.10553363695709 28392.242743533825
      5000  951.10880943928578 -277.85067003866061 7.7452491449906651 -270.10542089366993 27856.96452369944
      5100  955.14253367861841 -277.88356766726622 7.7780973311348323 -270.10547033613136 29307.398598137126
      5200  977.03379851146917 -278.06188513131457 7.956366419326077 -270.10551871198851 26996.380866801137
      5300  1082.8126007710478 -278.92332177786813 8.8177643683600433 -270.10555740950809 26997.406192307521
      5400  1084.6586337703961 -278.93838172564131 8.832797333429788 -270.10558439221154 27571.556454290592
      5500  817.23314433128951 -276.7604122565283 6.6550475083093099 -270.10536474821896 29995.367659363936
      5600  1027.591646374877 -278.47361943654943 8.3680786483059357 -270.1055407882435 27010.085439451817
      5700  1031.631478277302 -278.50655697514361 8.4009765715273694 -270.10558040361622 27060.984546504478
      5800  938.86220862859477 -277.75096699613306 7.6455203090082016 -270.10544668712487 29730.525173543752
      5900  1052.7452686674258 -278.67844694768479 8.5729143827889711 -270.10553256489584 27331.209962105419
      6000  1003.0040387901929 -278.27336834068086 8.1678521918451761 -270.1055161488357 28655.948251690963
      6100  1005.9144625669072 -278.29710373387303 8.1915529052067164 -270.10555082866631 27322.39451922051
      6200  926.69639911186823 -277.65196433610942 7.5464493879712116 -270.10551494813819 29452.619597825746
      6300  1049.6647264891192 -278.65340787221021 8.5478283290842398 -270.10557954312594 27487.793683652213
      6400  1069.0474646005291 -278.81122498069902 8.7056695080272455 -270.10555547267177 26847.523119639929
      6500  969.27038754893556 -277.99864753845179 7.8931459428432413 -270.10550159560853 29211.712936573975
      6600  980.8806549261576 -278.09324801789018 7.9876928680573558 -270.10555514983281 27421.269672587405
      6700  1108.3634952330658 -279.13147203358398 9.0258352447115726 -270.1056367888724 27122.357796944656
      6800  976.54751494689174 -278.0579109295486 7.9524064230297684 -270.10550450651886 27922.898513664284
      6900  989.96760205502869 -278.16723046609053 8.0616914145769236 -270.10553905151363 27737.999637456734
      7000  1057.4921657900513 -278.71707838392757 8.611570213242322 -270.10550817068525 27780.899384471868
      7100  941.52998449091569 -277.77263586498088 7.6672450459800414 -270.10539081900083 29073.453944624249
      7200  916.92369398367885 -277.57236179237964 7.4668664472107551 -270.10549534516889 26623.478868301696
      7300  900.98163657251996 -277.44254033784068 7.3370440700991777 -270.1054962677415 27537.404855061755
      7400  1067.4177697274304 -278.797888990812 8.692398268504288 -270.10549072230771 27807.032241892026
      7500  1066.2367771208876 -278.78830410390111 8.6827809861436531 -270.10552311775746 28945.800653201317
      7600  1023.3012368027391 -278.43864943345426 8.3331401736114881 -270.10550925984279 28153.709735504279
      7700  1036.0002432812212 -278.54216509590788 8.4365531249936527 -270.1056119709142 26812.258477077245
      7800  922.51761761672719 -277.6179329090092 7.5124199441461403 -270.10551296486307 28216.877427900046
      7900  1043.7133517929612 -278.60493406647493 8.4993639690452341 -270.10557009742968 26118.547694033165
      8000  1022.881282795817 -278.43526920506002 8.3297203247143194 -270.10554888034568 26827.661896877627
      8100  934.85407005658271 -277.71838563022385 7.6128804769093046 -270.10550515331454 28221.548033248517
      8200  1143.5842671993696 -279.41823263562299 9.3126516964682828 -270.10558093915472 26509.455832443819
      8300  896.19642477183481 -277.40350459314874 7.2980762283128042 -270.10542836483592 30290.918801998465
      8400  907.3121016095098 -277.49408846798008 7.388595510300898 -270.10549295767919 28854.524101543007
      8500  1046.9236796135065 -278.63098454756124 8.5255069177388503 -270.10547762982242 25471.357616206424
      8600  1003.065287250363 -278.27380086744898 8.1683509618902601 -270.10544990555871 26375.068953229329
      8700  1017.7042747336785 -278.39307348269227 8.2875619335092932 -270.10551154918301 27121.163589078784
      8800  997.88625206543225 -278.23169652562251 8.126176063035512 -270.10552046258698 27670.271022670848
      8900  932.14157342667795 -277.69628045279813 7.5907915613246137 -270.1054888914735 28476.246815145165
      9000  897.36043504190798 -277.41305027688151 7.3075552168991464 -270.10549505998233 29836.167329221422
      9100  1193.5450401790513 -279.82509020816275 9.719501712327224 -270.10558849583555 25067.464495883982
      9200  1103.111439249205 -279.08860750930307 8.9830657090761878 -270.10554180022689 26591.25715462273
      9300  919.65901301674467 -277.59462376987307 7.4891412145053824 -270.1054825553677 27696.670425718628
      9400  877.61017795314785 -277.25221482761111 7.1467211879090806 -270.10549363970205 26571.670018670164
      9500  1047.9369057068577 -278.63934639856933 8.533758012098744 -270.10558838647057 26370.137899799858
      9600  1020.2510299283437 -278.4138192020967 8.3083011520910333 -270.10551805000568 27511.135461600043
      9700  1104.6572849666204 -279.1011937091298 8.9956541322957762 -270.10553957683402 26732.818975386195
      9800  1022.6318733105321 -278.4331998414392 8.327689286221684 -270.10551055521751 27529.394886500864
      9900  1017.7040605716397 -278.39313482650601 8.2875601895044735 -270.10557463700155 27947.440513082613
     10000  1023.1220126768803 -278.43720366815609 8.3316806818122391 -270.10552298634383 27097.587642011691
Loop time of 17.0444 on 1 procs for 10000 steps with 64 atoms

Performance: 25.346 ns/day, 0.947 hours/ns, 586.702 timesteps/s, 37.549 katom-step/s
100.0% CPU use with 1 MPI tasks x 1 OpenMP threads

MPI task timing breakdown:
Section |  min time  |  avg time  |  max time  |%varavg| %total
---------------------------------------------------------------
Pair    | 16.984     | 16.984     | 16.984     |   0.0 | 99.64
Neigh   | 0.026181   | 0.026181   | 0.026181   |   0.0 |  0.15
Comm    | 0.01088    | 0.01088    | 0.01088    |   0.0 |  0.06
Output  | 0.011263   | 0.011263   | 0.011263   |   0.0 |  0.07
Modify  | 0.0059482  | 0.0059482  | 0.0059482  |   0.0 |  0.03
Other   |            | 0.006311   |            |       |  0.04

Nlocal:             64 ave          64 max          64 min
Histogram: 1 0 0 0 0 0 0 0 0 0
Nghost:            367 ave         367 max         367 min
Histogram: 1 0 0 0 0 0 0 0 0 0
Neighs:            906 ave         906 max         906 min
Histogram: 1 0 0 0 0 0 0 0 0 0
FullNghs:         1812 ave        1812 max        1812 min
Histogram: 1 0 0 0 0 0 0 0 0 0

Total # of neighbors = 1812
Ave neighs/atom = 28.3125
Neighbor list builds = 370
Dangerous builds = 0
print "YE3T_NVE_END"
YE3T_NVE_END
Total wall time: 0:00:20
