LAMMPS (22 Jul 2025 - Update 4)
OMP_NUM_THREADS environment is not set. Defaulting to 1 thread.
  using 1 OpenMP thread(s) per MPI task
# 2000-step NVT preparation plus 10000-step NVE stability gate.
units metal
atom_style atomic
boundary p p p
atom_modify map yes sort 0 0.0
newton on
lattice diamond 5.7629999999999999
Lattice spacing in x,y,z = 5.763 5.763 5.763
region cell block 0 2 0 2 0 2 units lattice
create_box 1 cell
Created orthogonal box = (0 0 0) to (11.526 11.526 11.526)
  1 by 2 by 2 MPI processor grid
create_atoms 1 box
Created 64 atoms
  using lattice units in orthogonal box = (0 0 0) to (11.526 11.526 11.526)
  create_atoms CPU = 0.000 seconds
mass 1 72.629999999999995
reset_atoms id sort yes
Resetting atom IDs ...
WARNING: Communication cutoff is 0.0. No ghost atoms will be generated. Energies and forces may be wrong and atoms may get lost. (src/comm_brick.cpp:212)
displace_atoms all random 0.01 0.01 0.01 77295 units box
Displacing atoms ...
velocity all create 969.12000000000012 85214 mom yes rot no dist gaussian
neighbor 0.3 bin
neigh_modify every 1 delay 0 check yes
pair_style hybrid/overlay pace product zbl 1.4510643826302052 1.8656542062388353
ACE version: 2025.12.4p1
Product evaluator is used
pair_coeff * * pace models/ace_127/potential.yace Ge
Loading models/ace_127/potential.yace
Total number of basis functions
	Ge: 4 (r=1) 123 (r>1)
Mapping LAMMPS atom type #1(Ge) -> ACE species type #0
pair_coeff * * zbl 32 32
timestep 0.0005
thermo 100
thermo_style custom step temp pe ke etotal press
thermo_modify format float %.17g
fix thermostat all nvt temp 969.12000000000012 969.12000000000012 0.05
run 2000
Neighbor list info ...
  update: every = 1 steps, delay = 0 steps, check = yes
  max neighbors/atom: 2000, page size: 100000
  master list distance cutoff = 5.3761617
  ghost atom cutoff = 5.3761617
  binsize = 2.6880808, bins = 5 5 5
  2 neighbor lists, perpetual/occasional/extra = 2 0 0
  (1) pair pace, perpetual
      attributes: full, newton on, cut 5.376161693688304
      pair build: full/bin/atomonly
      stencil: full/bin/3d
      bin: standard
  (2) pair zbl, perpetual, half/full from (1)
      attributes: half, newton on
      pair build: halffull/newton
      stencil: none
      bin: none
Per MPI rank memory allocation (min/avg/max) = 3.571 | 3.571 | 3.571 Mbytes
   Step          Temp          PotEng         KinEng         TotEng         Press     
         0  969.12000000000012 -287.46430945384333 7.8919212785112007 -279.57238817533215 7139.8272246989127
       100  571.36918721747134 -283.31851963826426 4.652881631260537 -278.66563800700374 15906.694398002179
       200  294.39345618045439 -279.50746676471101 2.3973604724750111 -277.11010629223603 22025.281743589545
       300  789.28982674907979 -281.19939128622184 6.4274941995144887 -274.77189708670733 20824.888449670601
       400  1038.5062038175179 -280.54134187607258 8.4569601367976706 -272.08438173927493 23672.499339327791
       500  984.24755593654447 -278.18175843732865 8.0151108531639608 -270.16664758416471 27215.077865554103
       600  906.19640586388459 -276.58458928829702 7.3795099656880083 -269.20507932260904 30238.787465319114
       700  1092.8714818161245 -278.20932906431449 8.8996777509727778 -269.3096513133417 27592.244257257142
       800  902.3418807451061 -277.53244470166317 7.3481210677151623 -270.184323633948 27229.616923672431
       900  901.19276879735412 -277.41116997947927 7.3387634019649406 -270.0724065775143 30058.626180096293
      1000  1049.1848735219014 -278.67085138127544 8.5439206996446018 -270.12693068163082 26920.163396312055
      1100  988.06621859814129 -279.42384695164736 8.0462077091926378 -271.37763924245473 25328.8166366841
      1200  892.85002180811875 -279.67293622343573 7.2708251667767474 -272.40211105665895 25856.470499585084
      1300  887.97520926527795 -279.51219892819103 7.2311276712802162 -272.28107125691082 26515.003761610918
      1400  1022.4983904717974 -278.70367311979743 8.3266022835230231 -270.37707083627441 27718.867963263994
      1500  974.27913256652198 -277.55262144468901 7.9339341025994399 -269.61868734208957 29425.186638553248
      1600  1082.8423835561873 -278.69639655098689 8.8180069011689586 -269.8783896498179 27738.365223884728
      1700  983.32358447082004 -278.74587861348857 8.0075865939689308 -270.73829201951963 26350.940273279972
      1800  805.46008924061209 -277.74537453612493 6.5591749393981305 -271.18619959672679 27750.12552168289
      1900  1013.8055874719682 -278.68766140964976 8.2558134060215185 -270.43184800362826 26843.475872146963
      2000  1234.3843377329747 -280.15772693610495 10.052072004308876 -270.1056549317961 28478.118610015303
Loop time of 1.07736 on 4 procs for 2000 steps with 64 atoms

Performance: 80.196 ns/day, 0.299 hours/ns, 1856.388 timesteps/s, 118.809 katom-step/s
90.7% CPU use with 4 MPI tasks x 1 OpenMP threads

MPI task timing breakdown:
Section |  min time  |  avg time  |  max time  |%varavg| %total
---------------------------------------------------------------
Pair    | 0.91027    | 0.93314    | 0.95122    |   1.5 | 86.61
Neigh   | 0.0014285  | 0.0014549  | 0.0014957  |   0.1 |  0.14
Comm    | 0.11838    | 0.13663    | 0.15927    |   4.0 | 12.68
Output  | 0.00022911 | 0.00024594 | 0.00029528 |   0.0 |  0.02
Modify  | 0.0031489  | 0.0037446  | 0.0041455  |   0.6 |  0.35
Other   |            | 0.002143   |            |       |  0.20

Nlocal:             16 ave          18 max          14 min
Histogram: 2 0 0 0 0 0 0 0 0 2
Nghost:          216.5 ave         221 max         213 min
Histogram: 1 0 1 0 0 1 0 0 0 1
Neighs:            225 ave         260 max         192 min
Histogram: 2 0 0 0 0 0 0 0 0 2
FullNghs:          450 ave         508 max         391 min
Histogram: 2 0 0 0 0 0 0 0 0 2

Total # of neighbors = 1800
Ave neighs/atom = 28.125
Neighbor list builds = 72
Dangerous builds = 0
unfix thermostat
reset_timestep 0
fix integrate all nve
dump trajectory all custom 100 trajectory.ace_127.lammpstrj id type x y z vx vy vz fx fy fz
dump_modify trajectory sort id
print "YE3T_NVE_BEGIN"
YE3T_NVE_BEGIN
run 10000
Per MPI rank memory allocation (min/avg/max) = 3.587 | 3.587 | 3.587 Mbytes
   Step          Temp          PotEng         KinEng         TotEng         Press     
         0  1234.3843377329747 -280.157726936107 10.052072004308876 -270.10565493179814 28478.118610016394
       100  1020.3198472242331 -278.41430940270772 8.3088615581106797 -270.10544784459705 29237.986987719974
       200  902.0863717527069 -277.4515439637309 7.346040358562564 -270.10550360516834 29493.232234984753
       300  967.20645978174264 -277.98193123372312 7.8763385758884574 -270.10559265783468 28767.080848066114
       400  967.18077813736045 -277.98167210901431 7.8761294402646262 -270.10554266874971 29122.347836123117
       500  1054.2729671453967 -278.69091361698599 8.5853550259760354 -270.10555859100998 27589.661293054749
       600  875.13827115038271 -277.23199865042574 7.1265914889087103 -270.10540716151701 29797.424338995428
       700  1105.1245194946068 -279.10504578615354 8.9994590048744776 -270.10558678127904 28613.549392886915
       800  1094.2104676540409 -279.01624694582631 8.9105816336971859 -270.10566531212913 28695.313925318111
       900  993.4705730426806 -278.19577121126963 8.0902174704579881 -270.10555374081162 29184.511974988942
      1000  898.06455976978134 -277.41882855873894 7.3132891785577954 -270.10553938018114 28476.064177037511
      1100  1033.5757347695594 -278.52245140151092 8.416809408722072 -270.10564199278883 28653.66274634398
      1200  1041.8781628090026 -278.59008880923062 8.4844193110125925 -270.10566949821805 26658.836535959545
      1300  917.30723047315939 -277.57551149522135 7.4699897340920671 -270.1055217611293 31017.295988504415
      1400  1178.4382776303325 -279.70206878244198 9.5964814663229632 -270.105587316119 28033.784813733932
      1500  948.3490358328537 -277.82827741591359 7.7227752345889868 -270.1055021813246 30596.790502050255
      1600  1077.438768604371 -278.87971292696216 8.7740031618806142 -270.10570976508154 26521.464494251915
      1700  958.79473337932291 -277.91348603696963 7.8078386144963998 -270.10564742247323 28783.205401748743
      1800  1007.5400782480198 -278.31038573103632 8.2047909262819747 -270.10559480475433 26573.361541741237
      1900  915.66140168750167 -277.56212483702058 7.4565871098408714 -270.10553772717969 29315.573963748593
      2000  1009.9493139033344 -278.32997410618418 8.2244102697411172 -270.10556383644308 29848.147289002718
      2100  1294.0248212225858 -280.64346207089045 10.537747669564324 -270.10571440132611 26079.411928818387
      2200  916.63172562532179 -277.56999097837797 7.4644888352535466 -270.10550214312445 29834.653879738387
      2300  820.29566328901842 -276.78553186243931 6.679986791915411 -270.10554507052393 27619.353239369724
      2400  988.48039370363324 -278.15521107636425 8.049580498246689 -270.10563057811754 26677.239368527273
      2500  1111.608378351367 -279.15785074625546 9.0522595906414907 -270.10559115561398 27631.869149892911
      2600  1010.2632546656913 -278.33252536266718 8.2269668115343286 -270.10555855113284 29219.810535413908
      2700  1044.4712505924072 -278.61116682207563 8.5055358338940703 -270.10563098818159 26570.449600532607
      2800  933.8078278839306 -277.70993634868034 7.6043605197679502 -270.10557582891238 29137.232828397315
      2900  990.68442863622056 -278.17312345020201 8.067528812369881 -270.10559463783216 28308.698156822928
      3000  984.80327263618017 -278.12518771492785 8.0196362704979123 -270.10555144442992 27998.066966480452
      3100  1076.6503151805769 -278.87321142474536 8.7675824788358359 -270.10562894590953 26755.604941168309
      3200  1078.3181079664751 -278.88675551304152 8.7811639644879502 -270.10559154855355 26889.141234759078
      3300  897.40762689746452 -277.41343000869529 7.3079395185429465 -270.10549049015236 30000.825149000211
      3400  941.66573952894282 -277.77388293279682 7.6683505520817326 -270.10553238071509 28689.03500117881
      3500  1179.9220228851243 -279.71419948609912 9.6085641813099425 -270.10563530478919 26575.726934530041
      3600  933.50535205302469 -277.7074106007866 7.6018973413729514 -270.10551325941367 29105.763027326615
      3700  1000.5472199687561 -278.25339546200598 8.1478453601480236 -270.10555010185794 27849.326310673903
      3800  1052.4342251579017 -278.67597060380734 8.5703814344529992 -270.10558916935435 28023.934711404509
      3900  970.52869208084928 -278.00891508172833 7.9033928062969485 -270.10552227543138 27874.885612420272
      4000  979.6535088445163 -278.08320390370932 7.9776997399890606 -270.10550416372024 28502.022594132344
      4100  1004.4262157830586 -278.28499051775066 8.1794335325169243 -270.10555698523376 27722.763118234361
      4200  1144.9205113622072 -279.42914154246802 9.3235332526656425 -270.10560828980238 27256.225847523554
      4300  1059.0534640465009 -278.72987809192364 8.6242844725003884 -270.10559361942325 27609.747090996341
      4400  826.73939741131403 -276.83792570335345 6.7324606263557421 -270.10546507699769 26887.207362991936
      4500  903.18445082038409 -277.46048712454626 7.3549824437116573 -270.1055046808346 28075.740688095782
      4600  1121.3705637728629 -279.23733125898286 9.1317568653367562 -270.10557439364612 26816.671029950216
      4700  1056.2007849073723 -278.70654634082331 8.6010539961931674 -270.10549234463014 27940.761333551676
      4800  936.24670822719872 -277.72971377104005 7.6242212714568849 -270.10549249958319 27624.331697454509
      4900  993.17952862777611 -278.19338101949171 8.0878473825318533 -270.10553363695988 28392.242743510131
      5000  951.10880943914833 -277.85067003866322 7.745249144989546 -270.10542089367368 27856.964523706116
      5100  955.14253367853803 -277.88356766726986 7.7780973311341777 -270.10547033613568 29307.398598133197
      5200  977.033798511432 -278.06188513131542 7.9563664193257742 -270.10551871198965 26996.380866808529
      5300  1082.8126007711126 -278.92332177786977 8.8177643683605709 -270.10555740950917 26997.406192302598
      5400  1084.6586337704994 -278.93838172564227 8.8327973334306282 -270.10558439221165 27571.556454297835
      5500  817.23314433116434 -276.76041225652773 6.6550475083082903 -270.10536474821942 29995.367659367061
      5600  1027.5916463748683 -278.47361943655284 8.3680786483058647 -270.10554078824697 27010.085439454688
      5700  1031.6314782773945 -278.50655697514259 8.4009765715281226 -270.10558040361445 27060.984546495598
      5800  938.86220862856419 -277.7509669961363 7.6455203090079529 -270.10544668712834 29730.525173545699
      5900  1052.7452686673955 -278.67844694768633 8.5729143827887242 -270.1055325648976 27331.209962111483
      6000  1003.0040387902284 -278.27336834068439 8.1678521918454638 -270.10551614883894 28655.948251703772
      6100  1005.9144625666447 -278.29710373386769 8.1915529052045795 -270.10555082866313 27322.394519222369
      6200  926.69639911186084 -277.65196433611135 7.5464493879711512 -270.10551494814018 29452.619597831872
      6300  1049.6647264889286 -278.6534078722114 8.5478283290826873 -270.10557954312873 27487.793683656833
      6400  1069.0474646002806 -278.81122498069271 8.7056695080252222 -270.1055554726675 26847.52311965367
      6500  969.27038754929026 -277.99864753845236 7.8931459428461297 -270.10550159560626 29211.712936561886
      6600  980.88065492623673 -278.09324801789228 7.9876928680580006 -270.10555514983429 27421.269672592709
      6700  1108.3634952331158 -279.13147203358221 9.0258352447119794 -270.10563678887024 27122.357796949822
      6800  976.54751494658967 -278.05791092954291 7.9524064230273082 -270.10550450651562 27922.898513667926
      6900  989.96760205534486 -278.16723046608968 8.0616914145794993 -270.10553905151016 27737.999637448625
      7000  1057.4921657900134 -278.71707838392967 8.6115702132420129 -270.10550817068764 27780.899384469914
      7100  941.52998449076244 -277.77263586497617 7.6672450459787935 -270.10539081899736 29073.453944631772
      7200  916.92369398378196 -277.57236179238396 7.4668664472115944 -270.10549534517236 26623.47886831022
      7300  900.98163657251075 -277.44254033783915 7.3370440700991022 -270.10549626774002 27537.404855067449
      7400  1067.4177697273892 -278.79788899081086 8.6923982685039523 -270.10549072230691 27807.032241900986
      7500  1066.2367771208158 -278.78830410390469 8.6827809861430669 -270.10552311776161 28945.80065319924
      7600  1023.3012368031666 -278.43864943345523 8.3331401736149697 -270.10550925984023 28153.70973551827
      7700  1036.0002432814135 -278.54216509591311 8.4365531249952195 -270.10561197091789 26812.258477076288
      7800  922.51761761653472 -277.61793290900641 7.5124199441445736 -270.10551296486182 28216.877427906424
      7900  1043.7133517930479 -278.60493406647595 8.4993639690459393 -270.10557009743002 26118.547694022087
      8000  1022.8812827964487 -278.43526920506656 8.329720324719462 -270.1055488803471 26827.661896869973
      8100  934.85407005681259 -277.71838563023289 7.612880476911176 -270.1055051533217 28221.548033255047
      8200  1143.5842671992004 -279.41823263562014 9.3126516964669062 -270.10558093915324 26509.45583243663
      8300  896.19642477212244 -277.40350459314521 7.2980762283151464 -270.10542836483006 30290.918801987642
      8400  907.31210160931118 -277.49408846797661 7.3885955102992806 -270.10549295767731 28854.52410154781
      8500  1046.923679614122 -278.63098454756033 8.5255069177438614 -270.10547762981645 25471.357616193134
      8600  1003.0652872505254 -278.27380086745001 8.1683509618915835 -270.10544990555843 26375.068953222224
      8700  1017.7042747337446 -278.39307348269119 8.2875619335098296 -270.10551154918136 27121.163589084321
      8800  997.88625206512575 -278.23169652562319 8.1261760630330162 -270.10552046259016 27670.27102267088
      8900  932.14157342704857 -277.69628045279376 7.5907915613276318 -270.10548889146611 28476.2468151471
      9000  897.36043504177405 -277.41305027688475 7.3075552168980558 -270.10549505998671 29836.167329221447
      9100  1193.5450401787493 -279.82509020815723 9.7195017123247656 -270.10558849583248 25067.464495889875
      9200  1103.1114392496597 -279.08860750930563 8.9830657090798915 -270.10554180022575 26591.257154619019
      9300  919.65901301595136 -277.59462376986897 7.4891412144989218 -270.10548255537003 27696.670425730415
      9400  877.61017795384907 -277.25221482761526 7.1467211879147907 -270.10549363970046 26571.670018661542
      9500  1047.9369057064007 -278.6393463985641 8.5337580120950225 -270.10558838646909 26370.137899795584
      9600  1020.2510299279995 -278.41381920210097 8.3083011520882319 -270.10551805001273 27511.13546161518
      9700  1104.6572849665579 -279.1011937091306 8.9956541322952663 -270.10553957683533 26732.818975384493
      9800  1022.6318733107023 -278.43319984144392 8.3276892862230696 -270.10551055522086 27529.394886512702
      9900  1017.7040605723985 -278.39313482650493 8.2875601895106517 -270.10557463699428 27947.440513080946
     10000  1023.1220126767131 -278.43720366815637 8.3316806818108784 -270.10552298634548 27097.587642015118
Loop time of 5.44385 on 4 procs for 10000 steps with 64 atoms

Performance: 79.356 ns/day, 0.302 hours/ns, 1836.936 timesteps/s, 117.564 katom-step/s
91.8% CPU use with 4 MPI tasks x 1 OpenMP threads

MPI task timing breakdown:
Section |  min time  |  avg time  |  max time  |%varavg| %total
---------------------------------------------------------------
Pair    | 4.6115     | 4.6876     | 4.7253     |   2.1 | 86.11
Neigh   | 0.0073558  | 0.007571   | 0.0079623  |   0.3 |  0.14
Comm    | 0.67964    | 0.71787    | 0.79576    |   5.4 | 13.19
Output  | 0.0084527  | 0.010069   | 0.011672   |   1.5 |  0.18
Modify  | 0.0024403  | 0.0025956  | 0.002773   |   0.3 |  0.05
Other   |            | 0.01811    |            |       |  0.33

Nlocal:             16 ave          18 max          15 min
Histogram: 2 0 0 1 0 0 0 0 0 1
Nghost:            216 ave         217 max         214 min
Histogram: 1 0 0 0 0 0 1 0 0 2
Neighs:          226.5 ave         251 max         216 min
Histogram: 2 1 0 0 0 0 0 0 0 1
FullNghs:          453 ave         509 max         425 min
Histogram: 2 0 0 1 0 0 0 0 0 1

Total # of neighbors = 1812
Ave neighs/atom = 28.3125
Neighbor list builds = 370
Dangerous builds = 0
print "YE3T_NVE_END"
YE3T_NVE_END
Total wall time: 0:00:06
