LAMMPS (22 Jul 2025 - Update 4)
OMP_NUM_THREADS environment is not set. Defaulting to 1 thread.
  using 1 OpenMP thread(s) per MPI task
# 2000-step NVT preparation plus 10000-step NVE stability gate.
units metal
atom_style atomic
boundary p p p
atom_modify map yes sort 0 0.0
newton on
lattice diamond 5.7629999999999999
Lattice spacing in x,y,z = 5.763 5.763 5.763
region cell block 0 2 0 2 0 2 units lattice
create_box 1 cell
Created orthogonal box = (0 0 0) to (11.526 11.526 11.526)
  1 by 1 by 1 MPI processor grid
create_atoms 1 box
Created 64 atoms
  using lattice units in orthogonal box = (0 0 0) to (11.526 11.526 11.526)
  create_atoms CPU = 0.000 seconds
mass 1 72.629999999999995
reset_atoms id sort yes
Resetting atom IDs ...
WARNING: Communication cutoff is 0.0. No ghost atoms will be generated. Energies and forces may be wrong and atoms may get lost. (src/comm_brick.cpp:212)
displace_atoms all random 0.01 0.01 0.01 78304 units box
Displacing atoms ...
velocity all create 969.12000000000012 86223 mom yes rot no dist gaussian
neighbor 0.3 bin
neigh_modify every 1 delay 0 check yes
pair_style hybrid/overlay ye3t model_family tagged_cauchy block_policy direct zbl 1.4510643826302052 1.8656542062388353
YE3T configuration: model_family tagged_cauchy, source_realization model_default, chunksize 4096, block_policy direct, plan none, auto_replay none
pair_coeff * * ye3t models/ye3t_tagged_127/model.ye3t.json Ge
YE3T CPU dispatch: PACE-compatible spline/half-complex source with split-real harmonics, exact signed-m expansion/collapse, tiled split-real symmetric-power forward/adjoint, source_model de577d2c5471eadc40e56cf0164b7778fa30335f0fd27585f7b2aacaaf6df9c7, direct_logical_plan fda11e94769696d06239ceedf51b882ef4dd6dea6c656f85cd678d04e007e574
YE3T CPU source schedule: complete environments in 8/16-center batches, soft cache target 1048576 bytes (992 edges), no source-table replay; chunksize is an outer packing limit, not a memory limit
YE3T self-contained composite: ordinary model be65d9ebc3afb1bfe5f5564cd3e1a560901b451c3f90f19c58956350c3ced066, tagged model a25d0b01f2779fab654da5b6fbf2493c9a09b4f585ecba2a1638cdbdf1057bc5, manifest de577d2c5471eadc40e56cf0164b7778fa30335f0fd27585f7b2aacaaf6df9c7, ordinary evaluator compiled_direct, tagged evaluator compiled_direct
YE3T tagged-Cauchy CPU dispatch: real-arithmetic exact moment reduction, evaluator compiled_direct, portfolio 00931a8bde0f75be318a63cf21c6de9280bb7482fa26112ec04083f4e3c5eb8f, tag_count 2, feature_count 69, model_self_hash fda11e94769696d06239ceedf51b882ef4dd6dea6c656f85cd678d04e007e574
Loaded YE3T tagged-Cauchy potential models/ye3t_tagged_127/model.ye3t.json
pair_coeff * * zbl 32 32
timestep 0.0005
thermo 100
thermo_style custom step temp pe ke etotal press
thermo_modify format float %.17g
fix thermostat all nvt temp 969.12000000000012 969.12000000000012 0.05
run 2000
Neighbor list info ...
  update: every = 1 steps, delay = 0 steps, check = yes
  max neighbors/atom: 2000, page size: 100000
  master list distance cutoff = 5.3761617
  ghost atom cutoff = 5.3761617
  binsize = 2.6880808, bins = 5 5 5
  2 neighbor lists, perpetual/occasional/extra = 2 0 0
  (1) pair ye3t, perpetual
      attributes: full, newton on, cut 5.376161693688304
      pair build: full/bin/atomonly
      stencil: full/bin/3d
      bin: standard
  (2) pair zbl, perpetual, half/full from (1)
      attributes: half, newton on
      pair build: halffull/newton
      stencil: none
      bin: none
Per MPI rank memory allocation (min/avg/max) = 9.304 | 9.304 | 9.304 Mbytes
   Step          Temp          PotEng         KinEng         TotEng         Press     
         0  969.12000000000023 -287.51480283049261 7.8919212785112016 -279.62288155198144 6138.6957331535286
       100  490.1762473212342 -282.78854467903386 3.9916959266708112 -278.79684875236308 13831.549094917615
       200  314.16230271254886 -279.68066158921522 2.5583458825359515 -277.12231570667927 18753.41377490255
       300  846.76192621798646 -281.69140488779624 6.8955118698952225 -274.79589301790099 17159.682922151675
       400  1045.2473304541775 -280.62343964385605 8.5118557542083035 -272.11158388964776 22126.766011848616
       500  976.09523837612528 -278.24298442547956 7.9487233589173734 -270.29426106656217 25173.430167539384
       600  915.41530853769405 -277.19000381707372 7.4545830775585307 -269.73542073951518 28706.206575370245
       700  984.3352363037643 -278.91738747567661 8.0158248685137323 -270.90156260716287 25910.737315446571
       800  962.27812518435576 -279.69835190569177 7.8362052294744524 -271.86214667621732 21886.569764193275
       900  736.01444669759178 -277.54037814042624 5.9936520484402056 -271.54672609198605 24556.459829041349
      1000  1078.5723946809237 -278.75182617562677 8.7832347201555656 -269.9685914554712 28748.833833865057
      1100  1225.9607902990094 -280.58587469508234 9.9834757796569669 -270.6023989154254 23763.936653513407
      1200  824.2061146513289 -279.30689050883291 6.7118311190521958 -272.59505938978072 22757.890010959476
      1300  709.56047711370047 -277.98429699393898 5.7782270799531243 -272.20606991398586 26878.749193262433
      1400  1129.7636911744262 -279.71756763170254 9.2001053678273177 -270.51746226387525 23602.298513551155
      1500  1006.6091189509455 -279.47629833330609 8.1972097624570512 -271.27908857084901 23454.072469107901
      1600  881.01137857597735 -279.06176071189304 7.1744184881069852 -271.88734222378605 24214.850382279663
      1700  954.77653658776876 -279.21935395275636 7.7751168744017658 -271.4442370783546 24277.075970370748
      1800  941.29876650859126 -278.38849463307042 7.6653621479749638 -270.72313248509545 24685.668617261836
      1900  1083.1209225396083 -277.80888856925935 8.8202751525002228 -268.98861341675911 27933.401804663288
      2000  1128.9025330707796 -277.7239037485524 9.1930926222825651 -268.53081112626984 26392.17958080762
Loop time of 3.13108 on 1 procs for 2000 steps with 64 atoms

Performance: 27.594 ns/day, 0.870 hours/ns, 638.757 timesteps/s, 40.880 katom-step/s
100.0% CPU use with 1 MPI tasks x 1 OpenMP threads

MPI task timing breakdown:
Section |  min time  |  avg time  |  max time  |%varavg| %total
---------------------------------------------------------------
Pair    | 3.1187     | 3.1187     | 3.1187     |   0.0 | 99.60
Neigh   | 0.0052719  | 0.0052719  | 0.0052719  |   0.0 |  0.17
Comm    | 0.0025054  | 0.0025054  | 0.0025054  |   0.0 |  0.08
Output  | 0.00029649 | 0.00029649 | 0.00029649 |   0.0 |  0.01
Modify  | 0.0031755  | 0.0031755  | 0.0031755  |   0.0 |  0.10
Other   |            | 0.00112    |            |       |  0.04

Nlocal:             64 ave          64 max          64 min
Histogram: 1 0 0 0 0 0 0 0 0 0
Nghost:            363 ave         363 max         363 min
Histogram: 1 0 0 0 0 0 0 0 0 0
Neighs:            905 ave         905 max         905 min
Histogram: 1 0 0 0 0 0 0 0 0 0
FullNghs:         1810 ave        1810 max        1810 min
Histogram: 1 0 0 0 0 0 0 0 0 0

Total # of neighbors = 1810
Ave neighs/atom = 28.28125
Neighbor list builds = 70
Dangerous builds = 0
unfix thermostat
reset_timestep 0
fix integrate all nve
dump trajectory all custom 100 trajectory.ye3t_tagged_127.lammpstrj id type x y z vx vy vz fx fy fz
dump_modify trajectory sort id
print "YE3T_NVE_BEGIN"
YE3T_NVE_BEGIN
run 10000
Per MPI rank memory allocation (min/avg/max) = 9.304 | 9.304 | 9.304 Mbytes
   Step          Temp          PotEng         KinEng         TotEng         Press     
         0  1128.9025330707796 -277.72390374855445 9.1930926222825651 -268.53081112627189 26392.179580810116
       100  1193.1962720256274 -278.24747860377795 9.716661557535998 -268.53081704624196 28349.843643127475
       200  903.5152544136696 -275.8883839196194 7.3576763060990373 -268.53070761352035 28145.793805415597
       300  1115.8696992010532 -277.61768334456565 9.0869611845495744 -268.53072216001607 26471.41536380248
       400  1051.8870384170561 -277.09657503510607 8.5659254798927833 -268.5306495552133 27767.275588633791
       500  1157.9231388418671 -277.9601921196612 9.4294187080099565 -268.53077341165124 27880.043888438209
       600  1103.6577823857192 -277.51822728590423 8.9875147938380593 -268.53071249206619 27112.550142884189
       700  1022.0092966106998 -276.85330374025807 8.3226194018885646 -268.5306843383695 26787.538005492657
       800  1126.2330818330238 -277.70209200774593 9.1713542420766121 -268.5307377656693 28893.554554362356
       900  1189.8669160000306 -278.22030148616875 9.6895493158506074 -268.53075217031812 27182.575879292399
      1000  1067.0939266788828 -277.22043902052496 8.6897610885413012 -268.53067793198369 28059.429366725548
      1100  1058.4791937003913 -277.15037043629195 8.6196079656033273 -268.53076247068861 25887.035824896666
      1200  1181.125560613192 -278.1491172651871 9.6183650573682513 -268.53075220781886 26505.415669607519
      1300  1142.4073812318784 -277.83379985795034 9.3030678560674804 -268.53073200188288 27825.745469055324
      1400  1059.780200752559 -277.16088156926628 8.6302025722965077 -268.53067899696975 26661.660809699919
      1500  1120.3291176721548 -277.65399279705434 9.1232759644755621 -268.53071683257878 27452.270039725408
      1600  1090.8937675409384 -277.41424886861478 8.8835724540320928 -268.53067641458267 27216.897964839973
      1700  1091.7660760299366 -277.42129588798548 8.8906760015037687 -268.5306198864817 27829.065170092636
      1800  1082.0259272955748 -277.34200792485706 8.8113581801270833 -268.53064974473 28302.362891874091
      1900  1167.8059845318114 -278.04068603753603 9.5098985662243312 -268.53078747131173 26787.352725803456
      2000  1210.842518220484 -278.39113297011806 9.8603618070727279 -268.53077116304536 25140.700249045396
      2100  846.73779877653158 -275.42581869993523 6.8953153907506231 -268.53050330918461 28990.468048885206
      2200  1163.1590450851454 -278.00277978878114 9.4720567300233487 -268.53072305875781 24349.830490958222
      2300  1144.6343301748957 -277.85191905170939 9.3212027678942473 -268.53071628381514 25691.296132733645
      2400  1047.5951316396813 -277.06160975888235 8.5309748128734757 -268.53063494600889 27748.766402024441
      2500  1070.0233643855233 -277.24422919209235 8.7136166397332158 -268.53061255235912 25883.474402181309
      2600  1187.7623579761123 -278.20329079555574 9.672411080904654 -268.53087971465106 24184.4484655497
      2700  1144.5055927324902 -277.85094813393323 9.3201544088044948 -268.53079372512872 24457.0311271172
      2800  1007.5487287063645 -276.73547678477735 8.2048613703304714 -268.53061541444686 27755.803316092835
      2900  1225.0923371622412 -278.50716366330607 9.9764036278187511 -268.53076003548733 25611.144933686563
      3000  1211.7222185826699 -278.39824704396165 9.8675255494442098 -268.53072149451742 26423.583948236726
      3100  1039.4909852818773 -276.99573841960898 8.464979595474885 -268.53075882413413 28040.196917359546
      3200  1048.736054865707 -277.07099767769751 8.5402657946761629 -268.53073188302136 23731.023325042635
      3300  1105.7107672133304 -277.53503266482744 9.0042330481775483 -268.53079961664992 25532.141672308331
      3400  1011.9551748159313 -276.77138009939029 8.2407447757030798 -268.53063532368719 27260.94836327168
      3500  1240.5129757511584 -278.63266722055994 10.101979888558501 -268.53068733200143 24791.391508955898
      3600  1049.6085794038568 -277.07799438583106 8.5473711015201523 -268.53062328431093 27654.238490279567
      3700  1007.8498449638603 -276.73793450753419 8.2073134771901337 -268.53062103034404 27275.509306786978
      3800  1101.6736464277453 -277.50208391115268 8.9713572026355326 -268.53072670851714 24911.108733647157
      3900  969.00515690465534 -276.42167737039279 7.8909860664963407 -268.53069130389645 26940.613428547953
      4000  1292.591482179778 -279.05687778531774 10.52607543197635 -268.53080235334141 23535.885730153495
      4100  1140.8290952679977 -277.82095555044248 9.2902152592972929 -268.53074029114521 25753.850854631142
      4200  1005.5895773323374 -276.71952391069067 8.1889072383173982 -268.5306166723733 27437.645922036503
      4300  1047.2395920364349 -277.05870889558651 8.5280795155313367 -268.53062938005519 26256.311093599674
      4400  1162.4474144490439 -277.99701683427315 9.4662616448331853 -268.53075518943996 26472.245070425583
      4500  1110.7028076098168 -277.575594752391 9.0448851757037776 -268.53070957668723 25944.275674678396
      4600  1084.8587617503356 -277.36503557449907 8.8344270534472358 -268.53060852105182 26922.324067890717
      4700  1185.6792626044098 -278.18626395882666 9.6554476246875627 -268.5308163341391 25537.646761339187
      4800  1061.2094947147189 -277.17251663428817 8.6418418692186822 -268.53067476506948 29069.665557983742
      4900  1119.692487250102 -277.64881521321865 9.1180916352136059 -268.53072357800505 27297.832076515126
      5000  1098.0789385727949 -277.47272430212718 8.9420840977460294 -268.53064020438114 25387.156122787088
      5100  1096.4860237341861 -277.45971418101919 8.9291123723563235 -268.53060180866288 27738.21827425178
      5200  1095.9822608132545 -277.45558523096383 8.9250100348593921 -268.53057519610445 25418.729392514771
      5300  986.48905487329648 -276.56386122478648 8.033364251251621 -268.53049697353487 28934.390943746264
      5400  1138.2759221959943 -277.80013837739932 9.2694237774429649 -268.53071459995635 25457.601451516755
      5500  1212.9941398171245 -278.40854126685315 9.8778832990054433 -268.53065796784773 26085.873174990455
      5600  1063.0521622307149 -277.1874285114194 8.6568474278478611 -268.53058108357152 27222.696926869532
      5700  1132.4823551961881 -277.75296500169213 9.2222445068838486 -268.53072049480829 25474.304786544631
      5800  1095.4290958640429 -277.45127578930067 8.9205053974221205 -268.53077039187855 25731.014150782594
      5900  990.63073497673452 -276.59764626336562 8.0670915640066045 -268.53055469935902 28540.950531481678
      6000  1092.7928122479643 -277.4295513924468 8.8990371140661679 -268.53051427838062 28119.120394321795
      6100  1100.6647148258198 -277.49376237489105 8.9631410799904536 -268.53062129490058 25545.454920057611
      6200  1236.9655323665445 -278.60383664283552 10.073091676643209 -268.53074496619229 24946.510812744233
      6300  961.12770402545937 -276.35737839531123 7.8268369023084219 -268.53054149300283 30062.077853553852
      6400  1084.5694956492241 -277.36268748838063 8.8320714470223205 -268.53061604135831 27382.553535458948
      6500  1055.2956380355527 -277.12432430838351 8.5936830329916116 -268.53064127539187 26726.422764945601
      6600  1124.7406460400955 -277.68991004603936 9.1592007566557943 -268.53070928938354 27631.427555260329
      6700  1291.7545715739466 -279.04999109419737 10.519260143241857 -268.5307309509555 24780.09480494578
      6800  990.23084362821919 -276.59441154618139 8.0638350931439238 -268.53057645303744 29310.164981668448
      6900  1039.0933762527625 -276.99232908944521 8.4617417104272121 -268.53058737901802 26610.154783232356
      7000  1083.3652454516816 -277.35277427472795 8.8222647690478322 -268.53050950568013 29382.700883612742
      7100  1060.5273046431839 -277.16680137714525 8.6362865300021383 -268.53051484714308 29167.330149426209
      7200  1082.0039855604011 -277.34174373196595 8.8111795000392679 -268.53056423192669 26422.396653512373
      7300  1097.5105713302482 -277.46803141448822 8.9374556621183867 -268.53057575236983 24796.303165959634
      7400  1199.5614986158726 -278.29907873494608 9.7684960745928144 -268.53058266035328 25735.970528074038
      7500  1000.2977369025289 -276.67630291154614 8.1458137224571416 -268.530489189089 27350.743379528711
      7600  978.18057203412945 -276.49620990887047 7.9657050423708142 -268.53050486649965 28047.932590573357
      7700  1205.3710905349403 -278.34646498951258 9.815805842305334 -268.53065914720725 25806.543284232714
      7800  1092.4063331882558 -277.42640448200268 8.8958898646904316 -268.53051461731224 28582.087608786514
      7900  1075.0528941575903 -277.28513929642895 8.7545740578332261 -268.53056523859573 25456.223778835712
      8000  1094.0948633938774 -277.44031071811992 8.909640223221011 -268.53067049489891 25699.764059774378
      8100  1215.5916633891111 -278.42966423841369 9.8990359442394649 -268.53062829417422 25307.103673556288
      8200  1117.2903271191822 -277.62907901593189 9.0985299105029434 -268.53054910542897 26154.164539278678
      8300  965.57129012973246 -276.39360168232326 7.8630227531103962 -268.53057892921288 26258.71829856958
      8400  1138.5083671596994 -277.80191453001612 9.2713166672348866 -268.53059786278124 23932.740558613434
      8500  1076.067269945863 -277.29329085109293 8.7628345146062525 -268.53045633648668 26825.128207855145
      8600  1139.3852862498059 -277.80903562225615 9.2784577606255336 -268.5305778616306 25849.642721136403
      8700  1002.3621299383847 -276.69317731099181 8.1626248782757003 -268.53055243271609 24746.51959946677
      8800  1064.2231162149146 -277.19687710283347 8.6663829618003785 -268.5304941410331 26109.74806040429
      8900  1137.310610850951 -277.7921583583078 9.2615628715238465 -268.53059548678397 24815.319795926382
      9000  1113.3865410036624 -277.59724902954974 9.0667398610644554 -268.53050916848531 26580.600790821591
      9100  1081.7637694725872 -277.33974472430123 8.809223326959712 -268.53052139734149 25525.090102808597
      9200  1116.747679590143 -277.6246439861452 9.0941109205108308 -268.53053306563436 25911.501617647773
      9300  1046.0794056558104 -277.04917129349815 8.5186316663647847 -268.53053962713335 26149.334997969832
      9400  1163.0366003245429 -278.00165341766206 9.4710596146902191 -268.53059380297185 23909.771624302324
      9500  1094.6179722725694 -277.44443930371779 8.9139001023801736 -268.5305392013376 26142.154433927051
      9600  1087.2846664335127 -277.38465281232504 8.8541821392867668 -268.53047067303828 26261.929587187296
      9700  1231.0214537084505 -278.55526925780907 10.024686731081301 -268.53058252672776 25941.813472847727
      9800  1138.6761105540286 -277.80333413665221 9.2726826669697342 -268.53065146968248 26434.072421747114
      9900  1151.0296861165136 -277.90384118572274 9.3732826399836782 -268.53055854573904 25866.042530912477
     10000  965.71063367491683 -276.39462152349768 7.864157481822283 -268.53046404167537 28584.654585069617
Loop time of 15.3348 on 1 procs for 10000 steps with 64 atoms

Performance: 28.171 ns/day, 0.852 hours/ns, 652.109 timesteps/s, 41.735 katom-step/s
100.0% CPU use with 1 MPI tasks x 1 OpenMP threads

MPI task timing breakdown:
Section |  min time  |  avg time  |  max time  |%varavg| %total
---------------------------------------------------------------
Pair    | 15.269     | 15.269     | 15.269     |   0.0 | 99.57
Neigh   | 0.028107   | 0.028107   | 0.028107   |   0.0 |  0.18
Comm    | 0.012897   | 0.012897   | 0.012897   |   0.0 |  0.08
Output  | 0.011357   | 0.011357   | 0.011357   |   0.0 |  0.07
Modify  | 0.0066187  | 0.0066187  | 0.0066187  |   0.0 |  0.04
Other   |            | 0.007317   |            |       |  0.05

Nlocal:             64 ave          64 max          64 min
Histogram: 1 0 0 0 0 0 0 0 0 0
Nghost:            365 ave         365 max         365 min
Histogram: 1 0 0 0 0 0 0 0 0 0
Neighs:            908 ave         908 max         908 min
Histogram: 1 0 0 0 0 0 0 0 0 0
FullNghs:         1816 ave        1816 max        1816 min
Histogram: 1 0 0 0 0 0 0 0 0 0

Total # of neighbors = 1816
Ave neighs/atom = 28.375
Neighbor list builds = 386
Dangerous builds = 0
print "YE3T_NVE_END"
YE3T_NVE_END
Total wall time: 0:00:18
