LAMMPS (22 Jul 2025 - Update 4)
OMP_NUM_THREADS environment is not set. Defaulting to 1 thread.
  using 1 OpenMP thread(s) per MPI task
# 2000-step NVT preparation plus 10000-step NVE stability gate.
units metal
atom_style atomic
boundary p p p
atom_modify map yes sort 0 0.0
newton on
lattice diamond 5.7629999999999999
Lattice spacing in x,y,z = 5.763 5.763 5.763
region cell block 0 2 0 2 0 2 units lattice
create_box 1 cell
Created orthogonal box = (0 0 0) to (11.526 11.526 11.526)
  1 by 2 by 2 MPI processor grid
create_atoms 1 box
Created 64 atoms
  using lattice units in orthogonal box = (0 0 0) to (11.526 11.526 11.526)
  create_atoms CPU = 0.000 seconds
mass 1 72.629999999999995
reset_atoms id sort yes
Resetting atom IDs ...
WARNING: Communication cutoff is 0.0. No ghost atoms will be generated. Energies and forces may be wrong and atoms may get lost. (src/comm_brick.cpp:212)
displace_atoms all random 0.01 0.01 0.01 78304 units box
Displacing atoms ...
velocity all create 969.12000000000012 86223 mom yes rot no dist gaussian
neighbor 0.3 bin
neigh_modify every 1 delay 0 check yes
pair_style hybrid/overlay ye3t model_family tagged_cauchy block_policy direct zbl 1.4510643826302052 1.8656542062388353
YE3T configuration: model_family tagged_cauchy, source_realization model_default, chunksize 4096, block_policy direct, plan none, auto_replay none
pair_coeff * * ye3t models/ye3t_tagged_127/model.ye3t.json Ge
YE3T CPU dispatch: PACE-compatible spline/half-complex source with split-real harmonics, exact signed-m expansion/collapse, tiled split-real symmetric-power forward/adjoint, source_model de577d2c5471eadc40e56cf0164b7778fa30335f0fd27585f7b2aacaaf6df9c7, direct_logical_plan fda11e94769696d06239ceedf51b882ef4dd6dea6c656f85cd678d04e007e574
YE3T CPU source schedule: complete environments in 8/16-center batches, soft cache target 1048576 bytes (992 edges), no source-table replay; chunksize is an outer packing limit, not a memory limit
YE3T self-contained composite: ordinary model be65d9ebc3afb1bfe5f5564cd3e1a560901b451c3f90f19c58956350c3ced066, tagged model a25d0b01f2779fab654da5b6fbf2493c9a09b4f585ecba2a1638cdbdf1057bc5, manifest de577d2c5471eadc40e56cf0164b7778fa30335f0fd27585f7b2aacaaf6df9c7, ordinary evaluator compiled_direct, tagged evaluator compiled_direct
YE3T tagged-Cauchy CPU dispatch: real-arithmetic exact moment reduction, evaluator compiled_direct, portfolio 00931a8bde0f75be318a63cf21c6de9280bb7482fa26112ec04083f4e3c5eb8f, tag_count 2, feature_count 69, model_self_hash fda11e94769696d06239ceedf51b882ef4dd6dea6c656f85cd678d04e007e574
Loaded YE3T tagged-Cauchy potential models/ye3t_tagged_127/model.ye3t.json
pair_coeff * * zbl 32 32
timestep 0.0005
thermo 100
thermo_style custom step temp pe ke etotal press
thermo_modify format float %.17g
fix thermostat all nvt temp 969.12000000000012 969.12000000000012 0.05
run 2000
Neighbor list info ...
  update: every = 1 steps, delay = 0 steps, check = yes
  max neighbors/atom: 2000, page size: 100000
  master list distance cutoff = 5.3761617
  ghost atom cutoff = 5.3761617
  binsize = 2.6880808, bins = 5 5 5
  2 neighbor lists, perpetual/occasional/extra = 2 0 0
  (1) pair ye3t, perpetual
      attributes: full, newton on, cut 5.376161693688304
      pair build: full/bin/atomonly
      stencil: full/bin/3d
      bin: standard
  (2) pair zbl, perpetual, half/full from (1)
      attributes: half, newton on
      pair build: halffull/newton
      stencil: none
      bin: none
Per MPI rank memory allocation (min/avg/max) = 9.077 | 9.15 | 9.176 Mbytes
   Step          Temp          PotEng         KinEng         TotEng         Press     
         0  969.12000000000012 -287.51480283049386 7.8919212785112007 -279.62288155198269 6138.6957331474759
       100  490.17624732123011 -282.78854467902806 3.9916959266707779 -278.79684875235728 13831.549094930208
       200  314.16230271254705 -279.68066158921295 2.5583458825359364 -277.122315706677 18753.413774914115
       300  846.76192621802284 -281.6914048877951 6.8955118698955191 -274.79589301789957 17159.682922111951
       400  1045.2473304541788 -280.62343964386469 8.5118557542083142 -272.11158388965634 22126.766011858297
       500  976.09523837609675 -278.24298442549036 7.9487233589171415 -270.2942610665732 25173.430167513256
       600  915.4153085376779 -277.19000381706508 7.4545830775583992 -269.73542073950665 28706.206575356344
       700  984.33523630365482 -278.91738747567092 8.0158248685128406 -270.9015626071581 25910.737315443486
       800  962.27812518440703 -279.69835190569302 7.8362052294748699 -271.86214667621817 21886.56976419967
       900  736.01444669762157 -277.54037814043113 5.9936520484404481 -271.54672609199071 24556.459829018651
      1000  1078.5723946809442 -278.75182617563382 8.7832347201557326 -269.96859145547808 28748.833833882483
      1100  1225.9607902990981 -280.58587469507631 9.9834757796576881 -270.60239891541863 23763.936653566685
      1200  824.20611465126251 -279.30689050883564 6.7118311190516557 -272.59505938978396 22757.890010994015
      1300  709.56047711371718 -277.98429699392273 5.7782270799532602 -272.20606991396949 26878.749193280109
      1400  1129.7636911744548 -279.71756763169424 9.2001053678275504 -270.51746226386666 23602.298513600475
      1500  1006.6091189509073 -279.4762983332887 8.1972097624567404 -271.27908857083196 23454.072469098825
      1600  881.01137857596211 -279.06176071189975 7.1744184881068618 -271.88734222379287 24214.850382283385
      1700  954.77653658765576 -279.21935395275977 7.7751168744008456 -271.44423707835892 24277.075970352398
      1800  941.29876650862843 -278.38849463307304 7.6653621479752667 -270.72313248509778 24685.668617289051
      1900  1083.1209225396192 -277.80888856924412 8.8202751525003116 -268.98861341674382 27933.401804645036
      2000  1128.902533070921 -277.7239037485441 9.1930926222837162 -268.5308111262604 26392.179580798955
Loop time of 1.03565 on 4 procs for 2000 steps with 64 atoms

Performance: 83.426 ns/day, 0.288 hours/ns, 1931.153 timesteps/s, 123.594 katom-step/s
93.1% CPU use with 4 MPI tasks x 1 OpenMP threads

MPI task timing breakdown:
Section |  min time  |  avg time  |  max time  |%varavg| %total
---------------------------------------------------------------
Pair    | 0.83461    | 0.8741     | 0.92019    |   3.5 | 84.40
Neigh   | 0.0014042  | 0.0014635  | 0.0015229  |   0.1 |  0.14
Comm    | 0.10718    | 0.15296    | 0.19251    |   8.4 | 14.77
Output  | 0.00024272 | 0.00026132 | 0.00030965 |   0.0 |  0.03
Modify  | 0.0040994  | 0.004484   | 0.0046863  |   0.4 |  0.43
Other   |            | 0.002382   |            |       |  0.23

Nlocal:             16 ave          17 max          15 min
Histogram: 1 0 0 0 0 2 0 0 0 1
Nghost:            215 ave         216 max         214 min
Histogram: 1 0 0 0 0 2 0 0 0 1
Neighs:         226.25 ave         237 max         216 min
Histogram: 2 0 0 0 0 0 0 0 1 1
FullNghs:        452.5 ave         477 max         426 min
Histogram: 1 0 0 0 1 1 0 0 0 1

Total # of neighbors = 1810
Ave neighs/atom = 28.28125
Neighbor list builds = 70
Dangerous builds = 0
unfix thermostat
reset_timestep 0
fix integrate all nve
dump trajectory all custom 100 trajectory.ye3t_tagged_127.lammpstrj id type x y z vx vy vz fx fy fz
dump_modify trajectory sort id
print "YE3T_NVE_BEGIN"
YE3T_NVE_BEGIN
run 10000
Per MPI rank memory allocation (min/avg/max) = 9.202 | 9.207 | 9.211 Mbytes
   Step          Temp          PotEng         KinEng         TotEng         Press     
         0  1128.9025330709208 -277.72390374854035 9.1930926222837144 -268.53081112625665 26392.179580803502
       100  1193.196272025896 -278.24747860377659 9.7166615575381847 -268.53081704623838 28349.843643143056
       200  903.51525441349884 -275.88838391962463 7.3576763060976473 -268.530707613527 28145.793805404293
       300  1115.8696992009686 -277.61768334456679 9.0869611845488851 -268.53072216001789 26471.415363787481
       400  1051.8870384175009 -277.09657503507742 8.5659254798964035 -268.53064955518101 27767.275588679633
       500  1157.923138841742 -277.96019211965563 9.4294187080089387 -268.53077341164669 27880.043888484252
       600  1103.6577823855664 -277.51822728590696 8.9875147938368158 -268.53071249207017 27112.550142924461
       700  1022.009296610878 -276.85330374025375 8.3226194018900159 -268.53068433836376 26787.538005487182
       800  1126.2330818330172 -277.70209200775719 9.1713542420765588 -268.53073776568061 28893.554554361515
       900  1189.8669159999131 -278.22030148619126 9.68954931584965 -268.5307521703416 27182.575879245902
      1000  1067.0939266786895 -277.22043902051428 8.6897610885397274 -268.53067793197454 28059.429366780223
      1100  1058.479193700402 -277.15037043629547 8.6196079656034144 -268.53076247069208 25887.03582488657
      1200  1181.1255606128627 -278.1491172651979 9.6183650573655708 -268.53075220783234 26505.415669595761
      1300  1142.4073812317199 -277.83379985792749 9.3030678560661908 -268.53073200186128 27825.745469096459
      1400  1059.78020075259 -277.16088156927162 8.6302025722967599 -268.53067899697487 26661.660809670935
      1500  1120.3291176716343 -277.65399279706844 9.1232759644713237 -268.53071683259714 27452.270039683346
      1600  1090.8937675404209 -277.41424886861716 8.8835724540278793 -268.53067641458927 27216.89796483887
      1700  1091.7660760302592 -277.42129588799219 8.8906760015063977 -268.53061988648579 27829.065170129074
      1800  1082.0259272951569 -277.34200792485603 8.8113581801236798 -268.53064974473233 28302.362891873334
      1900  1167.8059845317541 -278.04068603754706 9.509898566223864 -268.53078747132321 26787.352725760942
      2000  1210.8425182210433 -278.39113297011841 9.8603618070772825 -268.53077116304109 25140.700249028319
      2100  846.73779877621996 -275.42581869993251 6.8953153907480855 -268.53050330918444 28990.46804885938
      2200  1163.159045085471 -278.00277978878466 9.472056730025999 -268.53072305875867 24349.830490970082
      2300  1144.6343301749325 -277.85191905171234 9.3212027678945475 -268.53071628381781 25691.296132708954
      2400  1047.5951316390897 -277.06160975889065 8.5309748128686582 -268.53063494602202 27748.766402000962
      2500  1070.0233643854583 -277.24422919211656 8.7136166397326864 -268.5306125523839 25883.474402177326
      2600  1187.7623579766405 -278.2032907955587 9.6724110809089545 -268.53087971464976 24184.448465524987
      2700  1144.5055927324961 -277.85094813395699 9.3201544088045427 -268.53079372515242 24457.031127064871
      2800  1007.5487287066366 -276.73547678477996 8.2048613703326865 -268.53061541444725 27755.803316075544
      2900  1225.0923371614854 -278.50716366328345 9.976403627812596 -268.53076003547085 25611.144933740943
      3000  1211.722218582988 -278.39824704395539 9.8675255494467997 -268.53072149450861 26423.583948265237
      3100  1039.4909852810717 -276.99573841959705 8.4649795954683249 -268.53075882412872 28040.19691735091
      3200  1048.7360548665711 -277.07099767770433 8.540265794683199 -268.53073188302113 23731.023325043032
      3300  1105.7107672125092 -277.53503266481118 9.0042330481708603 -268.53079961664031 25532.141672340513
      3400  1011.9551748166232 -276.77138009941041 8.2407447757087144 -268.53063532370169 27260.948363293312
      3500  1240.5129757520349 -278.63266722056278 10.101979888565639 -268.53068733199711 24791.391508977162
      3600  1049.6085794038095 -277.07799438582208 8.5473711015197669 -268.53062328430229 27654.238490254193
      3700  1007.8498449627539 -276.73793450753544 8.207313477181124 -268.53062103035433 27275.509306792614
      3800  1101.6736464297983 -277.50208391116962 8.9713572026522499 -268.53072670851736 24911.10873362892
      3900  969.00515690357076 -276.42167737037198 7.8909860664875087 -268.53069130388445 26940.613428635963
      4000  1292.5914821778561 -279.05687778526863 10.526075431960699 -268.53080235330793 23535.885730209975
      4100  1140.8290952694983 -277.82095555045419 9.2902152593095124 -268.5307402911447 25753.850854587829
      4200  1005.5895773321889 -276.7195239106984 8.1889072383161903 -268.53061667238222 27437.645922003259
      4300  1047.2395920362953 -277.05870889560833 8.5280795155301998 -268.53062938007815 26256.31109356193
      4400  1162.447414447947 -277.99701683426713 9.4662616448242538 -268.53075518944286 26472.245070390898
      4500  1110.702807611653 -277.57559475241453 9.044885175718731 -268.53070957669581 25944.275674569952
      4600  1084.8587617513997 -277.36503557450885 8.8344270534559026 -268.53060852105295 26922.324067889153
      4700  1185.6792626024082 -278.1862639588021 9.6554476246712628 -268.53081633413086 25537.646761387157
      4800  1061.2094947136186 -277.17251663427669 8.6418418692097223 -268.53067476506698 29069.665557998906
      4900  1119.6924872502614 -277.64881521320535 9.1180916352149044 -268.53072357799044 27297.832076523231
      5000  1098.0789385726937 -277.47272430212627 8.942084097745207 -268.53064020438109 25387.156122824003
      5100  1096.4860237329005 -277.45971418100271 8.9291123723458536 -268.53060180865685 27738.218274239072
      5200  1095.9822608108075 -277.45558523097168 8.925010034839465 -268.53057519613219 25418.729392388712
      5300  986.48905487556578 -276.56386122482479 8.0333642512701005 -268.5304969735547 28934.390943741389
      5400  1138.2759221930364 -277.8001383773975 9.2694237774188775 -268.53071459997864 25457.601451547478
      5500  1212.9941398157139 -278.40854126682882 9.8778832989939556 -268.53065796783488 26085.873174989749
      5600  1063.0521622304323 -277.18742851143998 8.6568474278455589 -268.53058108359443 27222.696926796685
      5700  1132.482355195943 -277.75296500167553 9.2222445068818537 -268.53072049479368 25474.304786548691
      5800  1095.4290958620509 -277.45127578928873 8.9205053974058988 -268.53077039188281 25731.014150844938
      5900  990.63073497679636 -276.59764626336062 8.0670915640071073 -268.5305546993535 28540.950531456503
      6000  1092.7928122512428 -277.42955139246271 8.8990371140928648 -268.53051427836982 28119.120394257636
      6100  1100.6647148257639 -277.49376237489491 8.9631410799899989 -268.5306212949049 25545.454920036111
      6200  1236.9655323650675 -278.60383664281835 10.073091676631181 -268.53074496618717 24946.510812775941
      6300  961.12770402596391 -276.35737839534215 7.8268369023125306 -268.5305414930296 30062.077853558974
      6400  1084.5694956495458 -277.36268748836846 8.8320714470249406 -268.53061604134354 27382.5535355098
      6500  1055.2956380321664 -277.12432430834167 8.5936830329640372 -268.53064127537766 26726.422764991086
      6600  1124.7406460402187 -277.68991004603663 9.1592007566567979 -268.53070928937984 27631.427555201717
      6700  1291.7545715731248 -279.04999109418054 10.519260143235165 -268.53073095094538 24780.094805010121
      6800  990.23084362948282 -276.59441154619924 8.0638350931542142 -268.530576453045 29310.164981681981
      6900  1039.093376256302 -276.9923290894609 8.4617417104560371 -268.53058737900488 26610.154783131842
      7000  1083.3652454513763 -277.35277427473432 8.8222647690453453 -268.530509505689 29382.700883666788
      7100  1060.5273046497182 -277.16680137721357 8.6362865300553509 -268.5305148471582 29167.330149321355
      7200  1082.0039855572604 -277.34174373194537 8.8111795000136919 -268.53056423193169 26422.396653557706
      7300  1097.5105713286271 -277.46803141447208 8.9374556621051848 -268.53057575236687 24796.30316599732
      7400  1199.5614986196767 -278.29907873497223 9.7684960746237923 -268.53058266034844 25735.970528097339
      7500  1000.2977369034014 -276.67630291157514 8.1458137224642471 -268.53048918911088 27350.743379549971
      7600  978.1805720312932 -276.49620990884921 7.965705042347718 -268.53050486650147 28047.932590584005
      7700  1205.3710905345579 -278.34646498950588 9.8158058423022201 -268.53065914720366 25806.543284201533
      7800  1092.4063331925245 -277.42640448202883 8.8958898647251932 -268.53051461730365 28582.087608763857
      7900  1075.0528941513578 -277.28513929638405 8.754574057782472 -268.53056523860158 25456.223778838837
      8000  1094.0948633954783 -277.44031071811651 8.9096402232340477 -268.53067049488249 25699.764059765643
      8100  1215.5916633963636 -278.42966423849214 9.8990359442985252 -268.5306282941936 25307.103673451104
      8200  1117.290327115086 -277.62907901589972 9.0985299104695869 -268.53054910543011 26154.164539318983
      8300  965.57129012595135 -276.39360168228666 7.8630227530796049 -268.53057892920708 26258.718298576339
      8400  1138.5083671539737 -277.80191452998451 9.2713166671882608 -268.53059786279624 23932.740558546389
      8500  1076.0672699436032 -277.29329085108054 8.7628345145878495 -268.5304563364927 26825.128207582558
      8600  1139.3852862522619 -277.80903562226695 9.2784577606455354 -268.5305778616214 25849.64272116069
      8700  1002.3621299388951 -276.69317731098965 8.1626248782798569 -268.53055243270978 24746.519599411618
      8800  1064.2231162105611 -277.19687710277208 8.666382961764926 -268.53049414100713 26109.748060396152
      8900  1137.3106108557949 -277.79215835835862 9.2615628715632941 -268.53059548679533 24815.319795806601
      9000  1113.3865410007438 -277.59724902951348 9.0667398610406895 -268.5305091684728 26580.600790692792
      9100  1081.7637694674067 -277.33974472426928 8.8092233269175253 -268.53052139735178 25525.090102787424
      9200  1116.7476795884825 -277.62464398613042 9.0941109204973092 -268.53053306563311 25911.501617706661
      9300  1046.0794056638699 -277.04917129356033 8.5186316664304158 -268.53053962712994 26149.334997754486
      9400  1163.0366003192871 -278.00165341762408 9.4710596146474195 -268.53059380297668 23909.77162434666
      9500  1094.6179722606491 -277.44443930363991 8.913900102283101 -268.53053920135682 26142.154434035343
      9600  1087.2846664442 -277.38465281239394 8.8541821393737976 -268.53047067302015 26261.929587022707
      9700  1231.0214537102768 -278.55526925784409 10.024686731096173 -268.53058252674793 25941.813472908743
      9800  1138.6761105465559 -277.80333413659571 9.2726826669088833 -268.5306514696868 26434.072421717581
      9900  1151.0296861139852 -277.90384118571296 9.3732826399630884 -268.5305585457499 25866.042530966555
     10000  965.71063367861677 -276.39462152355395 7.8641574818524127 -268.53046404170152 28584.654585031738
Loop time of 5.51753 on 4 procs for 10000 steps with 64 atoms

Performance: 78.296 ns/day, 0.307 hours/ns, 1812.404 timesteps/s, 115.994 katom-step/s
89.2% CPU use with 4 MPI tasks x 1 OpenMP threads

MPI task timing breakdown:
Section |  min time  |  avg time  |  max time  |%varavg| %total
---------------------------------------------------------------
Pair    | 4.495      | 4.5458     | 4.6022     |   2.3 | 82.39
Neigh   | 0.0082112  | 0.0083018  | 0.0084256  |   0.1 |  0.15
Comm    | 0.86916    | 0.92683    | 0.97888    |   5.1 | 16.80
Output  | 0.0085696  | 0.010346   | 0.012105   |   1.6 |  0.19
Modify  | 0.0031527  | 0.0033297  | 0.0034895  |   0.2 |  0.06
Other   |            | 0.02288    |            |       |  0.41

Nlocal:             16 ave          17 max          15 min
Histogram: 1 0 0 0 0 2 0 0 0 1
Nghost:          216.5 ave         218 max         215 min
Histogram: 1 0 0 1 0 0 1 0 0 1
Neighs:            227 ave         238 max         217 min
Histogram: 1 1 0 0 0 0 0 1 0 1
FullNghs:          454 ave         482 max         425 min
Histogram: 1 0 0 0 1 1 0 0 0 1

Total # of neighbors = 1816
Ave neighs/atom = 28.375
Neighbor list builds = 386
Dangerous builds = 0
print "YE3T_NVE_END"
YE3T_NVE_END
Total wall time: 0:00:06
