LAMMPS (22 Jul 2025 - Update 4)
OMP_NUM_THREADS environment is not set. Defaulting to 1 thread.
  using 1 OpenMP thread(s) per MPI task
# 2000-step NVT preparation plus 10000-step NVE stability gate.
units metal
atom_style atomic
boundary p p p
atom_modify map yes sort 0 0.0
newton on
lattice bcc 3.1680000000000001
Lattice spacing in x,y,z = 3.168 3.168 3.168
region cell block 0 2 0 2 0 2 units lattice
create_box 1 cell
Created orthogonal box = (0 0 0) to (6.336 6.336 6.336)
  1 by 1 by 1 MPI processor grid
create_atoms 1 box
Created 16 atoms
  using lattice units in orthogonal box = (0 0 0) to (6.336 6.336 6.336)
  create_atoms CPU = 0.000 seconds
mass 1 95.950000000000003
reset_atoms id sort yes
Resetting atom IDs ...
WARNING: Communication cutoff is 0.0. No ghost atoms will be generated. Energies and forces may be wrong and atoms may get lost. (src/comm_brick.cpp:212)
displace_atoms all random 0.01 0.01 0.01 78320 units box
Displacing atoms ...
velocity all create 2316.8000000000002 86239 mom yes rot no dist gaussian
neighbor 0.3 bin
neigh_modify every 1 delay 0 check yes
pair_style hybrid/overlay ye3t model_family tagged_cauchy block_policy direct zbl 1.318026516090159 1.6946055206873472
YE3T configuration: model_family tagged_cauchy, source_realization model_default, chunksize 4096, block_policy direct, plan none, auto_replay none
pair_coeff * * ye3t models/ye3t_tagged_127/model.ye3t.json Mo
YE3T CPU dispatch: PACE-compatible spline/half-complex source with split-real harmonics, exact signed-m expansion/collapse, tiled split-real symmetric-power forward/adjoint, source_model e3357aa905ca1f6f6a3f8a52fbf862685a3503cdc164f4421c0da50cbda74440, direct_logical_plan 67e99966107b075e5b37178d306b3a44401c0e1c501ee684dcd41c26ad6eec04
YE3T CPU source schedule: complete environments in 8/16-center batches, soft cache target 1048576 bytes (992 edges), no source-table replay; chunksize is an outer packing limit, not a memory limit
YE3T self-contained composite: ordinary model 2f6e3a7aafa328a4ebb7c15757269c3e7084df1ad01cedbb7896eb8f2fcec927, tagged model cf07f1c138cb4d5bfffc89e345525535afe352d6b3548109f3a2d1ff2b7380fb, manifest e3357aa905ca1f6f6a3f8a52fbf862685a3503cdc164f4421c0da50cbda74440, ordinary evaluator compiled_direct, tagged evaluator compiled_direct
YE3T tagged-Cauchy CPU dispatch: real-arithmetic exact moment reduction, evaluator compiled_direct, portfolio a61d96643159999a11b586822526f8a5cb2995f63e6f3633f6e4f21db40d0526, tag_count 2, feature_count 69, model_self_hash 67e99966107b075e5b37178d306b3a44401c0e1c501ee684dcd41c26ad6eec04
Loaded YE3T tagged-Cauchy potential models/ye3t_tagged_127/model.ye3t.json
pair_coeff * * zbl 42 42
timestep 0.0005
thermo 100
thermo_style custom step temp pe ke etotal press
thermo_modify format float %.17g
fix thermostat all nvt temp 2316.8000000000002 2316.8000000000002 0.05
run 2000
Neighbor list info ...
  update: every = 1 steps, delay = 0 steps, check = yes
  max neighbors/atom: 2000, page size: 100000
  master list distance cutoff = 4.9380492
  ghost atom cutoff = 4.9380492
  binsize = 2.4690246, bins = 3 3 3
  2 neighbor lists, perpetual/occasional/extra = 2 0 0
  (1) pair ye3t, perpetual
      attributes: full, newton on, cut 4.938049165633363
      pair build: full/bin/atomonly
      stencil: full/bin/3d
      bin: standard
  (2) pair zbl, perpetual, half/full from (1)
      attributes: half, newton on
      pair build: halffull/newton
      stencil: none
      bin: none
Per MPI rank memory allocation (min/avg/max) = 8.789 | 8.789 | 8.789 Mbytes
   Step          Temp          PotEng         KinEng         TotEng         Press     
         0  2316.8000000000002 -173.64816496837653 4.4920485590400006 -169.15611640933653 30595.033918009023
       100  347.09841656146773 -169.52133109781673 0.67298987481008588 -168.84834122300663 87206.644971264264
       200  2044.0686268408076 -171.4303255925193 3.9632491064309057 -167.46707648608839 74002.338285518883
       300  1606.9228257593525 -168.95612329300184 3.1156661619219546 -165.84045713107989 106745.47675629155
       400  2775.9117410565623 -169.10835475427794 5.3822213123426055 -163.72613344193533 125579.59458424499
       500  2025.7626449999457 -167.20752280179357 3.9277555984241479 -163.27976720336943 141705.81130185546
       600  2814.3242596799751 -168.59934496769029 5.4566994282487684 -163.1426455394415 138129.65575370201
       700  1652.2434461621235 -168.01821722412842 3.2035384113932368 -164.8146788127352 129370.78282516716
       800  2371.4847974351305 -169.94957806516427 4.598077031726409 -165.35150103343787 95626.904522564117
       900  2032.291926960251 -169.79576539706792 3.940415237418172 -165.85535015964976 98414.810301300546
      1000  1666.4075180362288 -169.19421626715896 3.2310011611567959 -165.96321510600217 105849.21396686388
      1100  3081.7647447872682 -169.94020534732223 5.9752403665063545 -163.96496498081589 110439.53082050358
      1200  1754.1959519660018 -166.87841205311724 3.4012143466430764 -163.47719770647416 150918.67689025626
      1300  4049.3711972432698 -169.66218650615133 7.8513346217173305 -161.81085188443399 121983.65100198533
      1400  2001.693503815424 -167.38236743379497 3.8810878882310966 -163.50127954556388 146897.25876010497
      1500  2468.9813880234346 -169.19774437550763 4.7871133832731569 -164.41063099223447 125321.25256836604
      1600  2284.2967070731743 -169.10432655823132 4.429027853689516 -164.6752987045418 108608.43993182087
      1700  2712.1692407881828 -169.63759654222662 5.258630839932307 -164.37896570229432 106659.84635727208
      1800  1279.3750568269018 -167.28765375559431 2.4805830803224285 -164.80707067527189 142516.34056103541
      1900  3562.1434416334305 -170.3610843761561 6.9066476666450445 -163.45443670951104 106526.3141301876
      2000  1410.9163134432845 -166.49807757283077 2.7356287088781661 -163.76244886395261 159394.92981247997
Loop time of 0.699461 on 1 procs for 2000 steps with 16 atoms

Performance: 123.524 ns/day, 0.194 hours/ns, 2859.344 timesteps/s, 45.749 katom-step/s
99.9% CPU use with 1 MPI tasks x 1 OpenMP threads

MPI task timing breakdown:
Section |  min time  |  avg time  |  max time  |%varavg| %total
---------------------------------------------------------------
Pair    | 0.6945     | 0.6945     | 0.6945     |   0.0 | 99.29
Neigh   | 0.0016508  | 0.0016508  | 0.0016508  |   0.0 |  0.24
Comm    | 0.0014646  | 0.0014646  | 0.0014646  |   0.0 |  0.21
Output  | 0.00020553 | 0.00020553 | 0.00020553 |   0.0 |  0.03
Modify  | 0.0011545  | 0.0011545  | 0.0011545  |   0.0 |  0.17
Other   |            | 0.0004816  |            |       |  0.07

Nlocal:             16 ave          16 max          16 min
Histogram: 1 0 0 0 0 0 0 0 0 0
Nghost:            316 ave         316 max         316 min
Histogram: 1 0 0 0 0 0 0 0 0 0
Neighs:            221 ave         221 max         221 min
Histogram: 1 0 0 0 0 0 0 0 0 0
FullNghs:          442 ave         442 max         442 min
Histogram: 1 0 0 0 0 0 0 0 0 0

Total # of neighbors = 442
Ave neighs/atom = 27.625
Neighbor list builds = 79
Dangerous builds = 0
unfix thermostat
reset_timestep 0
fix integrate all nve
dump trajectory all custom 100 trajectory.ye3t_tagged_127.lammpstrj id type x y z vx vy vz fx fy fz
dump_modify trajectory sort id
print "YE3T_NVE_BEGIN"
YE3T_NVE_BEGIN
run 10000
Per MPI rank memory allocation (min/avg/max) = 8.843 | 8.843 | 8.843 Mbytes
   Step          Temp          PotEng         KinEng         TotEng         Press     
         0  1410.9163134432845 -166.49807757283079 2.7356287088781661 -163.76244886395264 159394.92981248148
       100  2881.9260947490648 -169.35043118271801 5.5877727732982176 -163.7626584094198 118042.03640061698
       200  2438.1060780803055 -168.48985953618944 4.7272491776706245 -163.76261035851883 128540.1792723314
       300  2227.3512735629988 -168.08121687593581 4.3186162288003187 -163.76260064713549 140339.99434243434
       400  2789.3344519394886 -169.17095295275226 5.4082466356679078 -163.76270631708434 113481.97084327988
       500  2513.9731268560108 -168.63695165438543 4.8743479635526707 -163.76260369083275 133251.163933223
       600  2159.7554759342192 -167.95013433312334 4.1875545897570179 -163.76257974336633 141026.27769601322
       700  2629.4781891648709 -168.86092476410442 5.0983009800868295 -163.76262378401759 119415.613035292
       800  2428.0547125881267 -168.47037781081423 4.7077605632561186 -163.7626172475581 132088.12434491521
       900  2599.2626492410914 -168.80237348140491 5.0397160040098141 -163.76265747739509 116877.11047593287
      1000  2523.2201945914558 -168.65484530614981 4.8922771232972968 -163.7625681828525 133406.79196390233
      1100  2070.4750222319472 -167.77700410634003 4.0144485238886958 -163.76255558245134 142847.17319758091
      1200  2688.7039313792293 -168.97577867847895 5.213133900482239 -163.76264477799671 119634.13999948259
      1300  2176.8042384000837 -167.98316753827447 4.2206104723831412 -163.76255706589134 143046.0835828486
      1400  2712.9067562615651 -169.02273357442976 5.2600608102877437 -163.76267276414202 120950.65212587529
      1500  2289.825944475017 -168.20233911869803 4.4397485041140401 -163.76259061458398 138268.42088222259
      1600  2619.932227427119 -168.84240449580557 5.0797922941110363 -163.76261220169454 131517.30656756411
      1700  2369.8035505262847 -168.35743829393778 4.5948172584381357 -163.76262103549965 134910.03857581431
      1800  2022.6141010103395 -167.68415257080167 3.9216508796346172 -163.76250169116705 141378.8102854352
      1900  2941.5222017106839 -169.46597355545262 5.7033237947076341 -163.76264976074498 113324.08801963278
      2000  2157.4204141917876 -167.94561295718188 4.183027133465858 -163.76258582371602 138681.14397953826
      2100  2508.9344466767011 -168.62719396237827 4.8645784555938771 -163.76261550678439 133875.25255575293
      2200  2805.8514874189013 -169.20298033619457 5.4402715516834936 -163.76270878451109 114898.21542251314
      2300  2402.8817630763242 -168.42159601737393 4.6589526766965204 -163.76264334067741 133998.7742876593
      2400  2365.7750724011598 -168.3495938531093 4.5870064334393916 -163.7625874196699 135285.9883781494
      2500  2698.2812658046382 -168.99433778140548 5.2317034150303661 -163.76263436637512 130368.58815004808
      2600  1999.3796065480919 -167.63918670794138 3.87660146778674 -163.76258524015464 142832.74240535664
      2700  3079.2296393700781 -169.73303881436487 5.9703250450991101 -163.76271376926576 108127.43770524075
      2800  2279.2219173738881 -168.18177517335857 4.4191883329039019 -163.76258684045467 145184.94512427395
      2900  1907.383385191416 -167.46075418778781 3.6982297941064997 -163.7625243936813 149197.0516472359
      3000  3131.7746775867868 -169.83495727248098 6.0722047339829448 -163.76275253849803 108831.74294424734
      3100  2211.848471435138 -168.05120133543269 4.2885578120360144 -163.76264352339669 134583.23820504869
      3200  2292.1777574042467 -168.20693542123303 4.4443084393177168 -163.7626269819153 140943.44349299229
      3300  2819.2874206996958 -169.22905778342084 5.4663225119447807 -163.76273527147606 121004.06504956774
      3400  2557.582860873486 -168.72164206011954 4.9589029716903248 -163.76273908842921 130890.78777956875
      3500  2652.474614179735 -168.90563951112816 5.142888798565374 -163.76275071256279 123816.23887260914
      3600  2916.6386099639185 -169.41780293677493 5.6550769445480187 -163.7627259922269 119518.76433124313
      3700  1351.4695526914609 -166.38283364658736 2.6203672551597506 -163.76246639142761 170877.60417733507
      3800  3393.3836538436967 -170.3422308016265 6.5794389470469907 -163.76279185457952 100187.47338314544
      3900  2224.5025110560905 -168.0757527319779 4.313092756979616 -163.76265997499829 136583.87543767141
      4000  2403.9238263186317 -168.42362865623556 4.6609731353835171 -163.76265552085204 134846.02428605751
      4100  2463.2779950917566 -168.53870345618299 4.7760550623130467 -163.76264839386994 128349.56280454961
      4200  2366.3234913927349 -168.35070730620629 4.5880697642149677 -163.76263754199132 136828.226528578
      4300  2377.6482246275309 -168.3726942560744 4.6100273141152082 -163.7626669419592 129904.77072215566
      4400  2489.0591935173202 -168.58867243823545 4.8260422840144779 -163.76263015422097 138017.40527616485
      4500  2283.0527058203338 -168.18929608686662 4.4266158569546805 -163.76268022991195 139409.1286575011
      4600  2901.2422275038211 -169.38797984202529 5.6252248651090042 -163.76275497691628 115631.58758922447
      4700  2202.557954818325 -168.03315191747518 4.2705444091608022 -163.76260750831437 143899.6049889893
      4800  2652.7482190518035 -168.90615433681262 5.1434192916469188 -163.7627350451657 128530.77668666116
      4900  2284.0851900522593 -168.19125906640869 4.4286177428776146 -163.76264132353108 140760.13001291838
      5000  2433.4752015944355 -168.48094376166455 4.7182703611800143 -163.76267340048454 137513.19462576479
      5100  2718.2570176404347 -169.0331916833978 5.2704344437120527 -163.76275723968575 118609.51774514256
      5200  2249.4213865320989 -168.12407502761329 4.3614080188386026 -163.76266700877468 138572.28258964754
      5300  2882.2166947844721 -169.35107113403433 5.5883362183389247 -163.7627349156954 118672.66187698454
      5400  2059.760397613627 -167.7562777331681 3.9936739149119265 -163.76260381825617 144839.57656153981
      5500  2142.6545871966873 -167.91698746840925 4.1543976393893844 -163.76258982901987 147729.93702752318
      5600  2891.6890681523214 -169.36946694331309 5.6067022236642599 -163.76276471964883 110916.59380591093
      5700  2403.9029745788371 -168.42361673103409 4.6609327058998771 -163.76268402513421 137446.85190790787
      5800  2171.8998411789885 -167.97373654920568 4.2111013259440959 -163.76263522326158 136922.73679098513
      5900  2922.0968297445597 -169.42836540423002 5.6656598987523319 -163.7627055054777 115427.36641275405
      6000  1726.5569358013533 -167.11021725145127 3.3476249980865798 -163.76259225336469 151876.31257850831
      6100  3256.3094679577271 -170.07643472428714 6.3136655098963299 -163.7627692143908 109245.49980423781
      6200  1587.6865795624276 -166.84086518172475 3.0783689623319015 -163.76249621939286 164234.65830033884
      6300  2674.0235122464737 -168.94738280720787 5.1846700038958273 -163.76271280331204 126979.9087362655
      6400  3005.9541730400197 -169.59106065222846 5.8282510840576212 -163.76280956817084 108406.32192357228
      6500  2127.3941737373057 -167.88745810840726 4.1248091905415905 -163.76264891786568 146207.63526873756
      6600  2746.7338682096688 -169.08839045190052 5.3256482712178901 -163.76274218068264 121602.53245744439
      6700  2306.9026109714778 -168.23548453378623 4.4728584899257777 -163.76262604386045 137540.25146670808
      6800  2483.9887624080934 -168.5788824884001 4.8162112141086109 -163.76267127429148 127665.89607743952
      6900  2327.5401394723685 -168.27553720357335 4.5128726388227793 -163.76266456475057 125656.00736726244
      7000  2576.6686216396452 -168.75857447672945 4.9959083947513605 -163.7626660819781 135446.59875048415
      7100  2504.3840618044787 -168.61851514465491 4.8557557044680388 -163.76275944018687 119489.45649202757
      7200  2910.9643524879402 -169.40679568298134 5.6440751143863341 -163.762720568595 118233.93166639873
      7300  1781.866734921505 -167.21738555964646 3.4548652878994548 -163.76252027174701 153246.66033686418
      7400  2868.8374792857521 -169.32511752072998 5.5623952283086622 -163.7627222924213 117278.01565988155
      7500  2208.9140078448986 -168.04552215269115 4.2828681741984411 -163.76265397849272 136144.37463192351
      7600  3093.1200357246539 -169.76002556066462 5.9972571648026092 -163.762768395862 106852.65822617867
      7700  1946.6264851484082 -167.53687782125962 3.774318325966854 -163.76255949529278 150657.68110109161
      7800  2374.9817082549816 -168.36746655250147 4.6048571997207999 -163.76260935278066 136137.58667933295
      7900  3072.8584629030829 -169.72071588497582 5.9579719571899448 -163.76274392778586 103273.35270676132
      8000  1682.3291679663853 -167.02441122194401 3.2618716828359648 -163.76253953910805 155172.51378141096
      8100  3021.6420174728005 -169.62139731917682 5.8586682797494012 -163.76272903942743 113202.12983666755
      8200  2467.7635880297812 -168.54743617402227 4.7847521882167472 -163.76268398580552 127527.05794083841
      8300  2353.6591596385028 -168.32613895187632 4.5635148638317657 -163.76262408804456 131126.84858423503
      8400  2704.3405239892054 -169.0061429237835 5.24345172390331 -163.76269119988018 119315.23600288125
      8500  2185.2718858662333 -167.99962226570801 4.2370284124723918 -163.76259385323561 150355.22625366497
      8600  2474.3070260381587 -168.56015640090504 4.7974392744031675 -163.76271712650188 120255.76122210298
      8700  3174.2025147882132 -169.91725063025146 6.1544681598133364 -163.76278247043811 103980.28668278284
      8800  1513.303231868239 -166.6966239519387 2.9341469277038579 -163.76247702423484 168019.55431368708
      8900  2983.5708985172173 -169.54760154072937 5.7848521044017369 -163.76274943632762 113668.39748541213
      9000  2581.3247867208729 -168.76763844879028 5.0049362433545115 -163.76270220543577 120520.39381502084
      9100  2388.1302688809624 -168.39299751337808 4.6303509725166334 -163.76264654086145 135375.38309843227
      9200  2309.4219412944517 -168.24037043216737 4.4777432249685347 -163.76262720719882 135881.99878823097
      9300  2473.8508752461448 -168.55918550581015 4.7965548426404041 -163.76263066316974 138365.58394324686
      9400  2652.255613186534 -168.90516556013432 5.1424641770633297 -163.762701383071 115676.29516562946
      9500  2577.0791752506948 -168.75934135296237 4.9967044180407783 -163.7626369349216 130726.79582960838
      9600  1981.7490040553864 -167.60496572269983 3.8424174542670726 -163.76254826843277 148062.70192701288
      9700  3075.985393586056 -169.7267828380127 5.9640347698922351 -163.76274806812046 108272.17859982775
      9800  2118.0153362961864 -167.86920789968752 4.1066245422280323 -163.7625833574595 139540.47490074471
      9900  2340.5203898720351 -168.30063128332284 4.5380400745547371 -163.7625912087681 137526.20589516952
     10000  2572.6373959496768 -168.75070844647152 4.9880922424931651 -163.76261620397835 129678.40477188806
Loop time of 3.45928 on 1 procs for 10000 steps with 16 atoms

Performance: 124.881 ns/day, 0.192 hours/ns, 2890.771 timesteps/s, 46.252 katom-step/s
99.9% CPU use with 1 MPI tasks x 1 OpenMP threads

MPI task timing breakdown:
Section |  min time  |  avg time  |  max time  |%varavg| %total
---------------------------------------------------------------
Pair    | 3.4322     | 3.4322     | 3.4322     |   0.0 | 99.22
Neigh   | 0.0088302  | 0.0088302  | 0.0088302  |   0.0 |  0.26
Comm    | 0.0074399  | 0.0074399  | 0.0074399  |   0.0 |  0.22
Output  | 0.0053516  | 0.0053516  | 0.0053516  |   0.0 |  0.15
Modify  | 0.0023629  | 0.0023629  | 0.0023629  |   0.0 |  0.07
Other   |            | 0.003102   |            |       |  0.09

Nlocal:             16 ave          16 max          16 min
Histogram: 1 0 0 0 0 0 0 0 0 0
Nghost:            298 ave         298 max         298 min
Histogram: 1 0 0 0 0 0 0 0 0 0
Neighs:            218 ave         218 max         218 min
Histogram: 1 0 0 0 0 0 0 0 0 0
FullNghs:          436 ave         436 max         436 min
Histogram: 1 0 0 0 0 0 0 0 0 0

Total # of neighbors = 436
Ave neighs/atom = 27.25
Neighbor list builds = 417
Dangerous builds = 0
print "YE3T_NVE_END"
YE3T_NVE_END
Total wall time: 0:00:04
