LAMMPS (22 Jul 2025 - Update 4)
OMP_NUM_THREADS environment is not set. Defaulting to 1 thread.
  using 1 OpenMP thread(s) per MPI task
# 2000-step NVT preparation plus 10000-step NVE stability gate.
units metal
atom_style atomic
boundary p p p
atom_modify map yes sort 0 0.0
newton on
lattice bcc 3.1680000000000001
Lattice spacing in x,y,z = 3.168 3.168 3.168
region cell block 0 2 0 2 0 2 units lattice
create_box 1 cell
Created orthogonal box = (0 0 0) to (6.336 6.336 6.336)
  1 by 1 by 1 MPI processor grid
create_atoms 1 box
Created 16 atoms
  using lattice units in orthogonal box = (0 0 0) to (6.336 6.336 6.336)
  create_atoms CPU = 0.000 seconds
mass 1 95.950000000000003
reset_atoms id sort yes
Resetting atom IDs ...
WARNING: Communication cutoff is 0.0. No ghost atoms will be generated. Energies and forces may be wrong and atoms may get lost. (src/comm_brick.cpp:212)
displace_atoms all random 0.01 0.01 0.01 77311 units box
Displacing atoms ...
velocity all create 2316.8000000000002 85230 mom yes rot no dist gaussian
neighbor 0.3 bin
neigh_modify every 1 delay 0 check yes
pair_style hybrid/overlay pace product zbl 1.318026516090159 1.6946055206873472
ACE version: 2025.12.4p1
Product evaluator is used
pair_coeff * * pace models/ace_127/potential.yace Mo
Loading models/ace_127/potential.yace
Total number of basis functions
	Mo: 4 (r=1) 123 (r>1)
Mapping LAMMPS atom type #1(Mo) -> ACE species type #0
pair_coeff * * zbl 42 42
timestep 0.0005
thermo 100
thermo_style custom step temp pe ke etotal press
thermo_modify format float %.17g
fix thermostat all nvt temp 2316.8000000000002 2316.8000000000002 0.05
run 2000
Neighbor list info ...
  update: every = 1 steps, delay = 0 steps, check = yes
  max neighbors/atom: 2000, page size: 100000
  master list distance cutoff = 4.9380492
  ghost atom cutoff = 4.9380492
  binsize = 2.4690246, bins = 3 3 3
  2 neighbor lists, perpetual/occasional/extra = 2 0 0
  (1) pair pace, perpetual
      attributes: full, newton on, cut 4.938049165633363
      pair build: full/bin/atomonly
      stencil: full/bin/3d
      bin: standard
  (2) pair zbl, perpetual, half/full from (1)
      attributes: half, newton on
      pair build: halffull/newton
      stencil: none
      bin: none
Per MPI rank memory allocation (min/avg/max) = 3.571 | 3.571 | 3.571 Mbytes
   Step          Temp          PotEng         KinEng         TotEng         Press     
         0  2316.7999999999997 -173.63532595121998 4.4920485590399997 -169.14327739217998 25366.73110955676
       100  342.46317860932254 -169.49744653883849 0.66400260186302895 -168.83344393697547 102660.31784379066
       200  2075.0104578439464 -171.49488770892015 4.0232422898613738 -167.47164541905877 77524.489609441865
       300  1623.6439947908095 -168.95707346276137 3.1480868729255893 -165.80898658983577 123117.60935054757
       400  3220.0457313423044 -169.89900755532204 6.2433536720990599 -163.65565388322298 116460.09083623982
       500  1427.8233128662239 -166.25523441953146 2.7684097268320271 -163.48682469269943 184724.16351822851
       600  3917.2893942215878 -170.0074940389288 7.5952409265606695 -162.41225311236812 125523.27455219686
       700  1505.0857086546521 -167.70800346966365 2.9182139540719212 -164.78978951559174 146686.52857248383
       800  2948.166021568878 -170.11465101528049 5.7162055114809949 -164.39844550379948 113587.42429947601
       900  1234.0966976048715 -167.40136668102636 2.3927927711464028 -165.00857390987997 152944.01240920238
      1000  3407.0648613254943 -170.54956123342853 6.6059654699900747 -163.94359576343845 108708.08662614645
      1100  1585.508506768952 -166.07921054755468 3.0741458922553235 -163.00506465529935 177872.21212011474
      1200  3754.6671878172679 -168.27887478701084 7.2799323768600344 -160.99894241015079 163424.33155190066
      1300  2537.6846636963837 -168.38975606877534 4.9203223139050625 -163.46943375487027 145518.98222060854
      1400  1912.9104272448453 -168.02348174546839 3.7089461879652101 -164.31453555750318 146013.59651294831
      1500  2330.4105038176326 -169.21656523740444 4.5184379944948541 -164.69812724290958 122242.65654912425
      1600  2709.6470002265787 -170.34986589575797 5.2537404622215389 -165.09612543353643 106202.33704717047
      1700  999.36568037377731 -167.87647209442065 1.9376722912970719 -165.93879980312357 139197.18595469976
      1800  2879.8849490350062 -170.98915276756037 5.5838151914337377 -165.40533757612664 87173.266419640568
      1900  2171.2809641765502 -168.83867974877032 4.2099013839780106 -164.62877836479231 131687.85549606779
      2000  2277.3479897484099 -167.13675898255124 4.4155549705550703 -162.72120401199618 174563.79876058456
Loop time of 0.81884 on 1 procs for 2000 steps with 16 atoms

Performance: 105.515 ns/day, 0.227 hours/ns, 2442.481 timesteps/s, 39.080 katom-step/s
100.0% CPU use with 1 MPI tasks x 1 OpenMP threads

MPI task timing breakdown:
Section |  min time  |  avg time  |  max time  |%varavg| %total
---------------------------------------------------------------
Pair    | 0.81381    | 0.81381    | 0.81381    |   0.0 | 99.39
Neigh   | 0.0015109  | 0.0015109  | 0.0015109  |   0.0 |  0.18
Comm    | 0.0015021  | 0.0015021  | 0.0015021  |   0.0 |  0.18
Output  | 0.00030077 | 0.00030077 | 0.00030077 |   0.0 |  0.04
Modify  | 0.0011723  | 0.0011723  | 0.0011723  |   0.0 |  0.14
Other   |            | 0.0005388  |            |       |  0.07

Nlocal:             16 ave          16 max          16 min
Histogram: 1 0 0 0 0 0 0 0 0 0
Nghost:            298 ave         298 max         298 min
Histogram: 1 0 0 0 0 0 0 0 0 0
Neighs:            224 ave         224 max         224 min
Histogram: 1 0 0 0 0 0 0 0 0 0
FullNghs:          448 ave         448 max         448 min
Histogram: 1 0 0 0 0 0 0 0 0 0

Total # of neighbors = 448
Ave neighs/atom = 28
Neighbor list builds = 75
Dangerous builds = 0
unfix thermostat
reset_timestep 0
fix integrate all nve
dump trajectory all custom 100 trajectory.ace_127.lammpstrj id type x y z vx vy vz fx fy fz
dump_modify trajectory sort id
print "YE3T_NVE_BEGIN"
YE3T_NVE_BEGIN
run 10000
Per MPI rank memory allocation (min/avg/max) = 3.571 | 3.571 | 3.571 Mbytes
   Step          Temp          PotEng         KinEng         TotEng         Press     
         0  2277.3479897484099 -167.13675898255124 4.4155549705550703 -162.72120401199618 174563.79876058456
       100  2680.3926863897141 -167.91826288885289 5.1970192094951102 -162.72124367935777 154209.42830467367
       200  2862.9854750823051 -168.27237656950837 5.5510487646304902 -162.72132780487789 147077.84017383205
       300  2439.6279870586222 -167.45145548519758 4.7302000102988346 -162.72125547489875 161542.48439815547
       400  2686.2535254482368 -167.9296917307374 5.2083828030930048 -162.7213089276444 163485.06565762431
       500  2698.1748816924014 -167.95282164194057 5.2314971466437648 -162.72132449529681 155521.5059665289
       600  3152.0481951517881 -168.83287987202684 6.1115131012846264 -162.72136677074221 140911.87962547352
       700  1627.9446102196262 -165.87758312812818 3.1564253455343607 -162.72115778259382 190947.11471313905
       800  3287.7854043815928 -169.09613769132034 6.3746942714887256 -162.72144341983162 137051.44214390681
       900  2588.975657227777 -167.74107107885291 5.0197705328209912 -162.72130054603193 154336.25508266827
      1000  2433.0608538038323 -167.43872522419733 4.7174669813476076 -162.72125824284973 166415.56404835684
      1100  3186.5210106718046 -168.89975476338969 6.1783525182747603 -162.72140224511494 139957.89042245975
      1200  2171.6222880842406 -166.93178088641355 4.2105631776450112 -162.72121770876853 171099.96987142824
      1300  2673.8234542393789 -167.90554890517126 5.1842821109907451 -162.72126679418051 158558.98895165208
      1400  2807.2068359438772 -168.16427214688042 5.4428994398864523 -162.72137270699398 152459.028791513
      1500  2935.4860040208582 -168.41295855928962 5.6916201978781009 -162.72133836141151 148669.14324231134
      1600  2803.8400491647021 -168.15774349805301 5.4363715696775481 -162.72137192837545 156167.21887540387
      1700  2686.1405634468574 -167.92946377110536 5.2081637808228374 -162.72129999028252 159400.86303632238
      1800  2834.5848504962123 -168.21730233509692 5.4959827318491561 -162.72131960324776 147307.54602541742
      1900  2685.6957981321489 -167.92858651209298 5.2073014243867846 -162.72128508770618 161420.8760087424
      2000  2339.9482409286989 -167.25819025858902 4.5369307337240787 -162.72125952486493 171128.68011841422
      2100  2996.6008052999287 -168.53156970891473 5.8101158190027835 -162.72145388991194 154916.23535104579
      2200  3197.5442436610338 -168.92125288926832 6.199725488693109 -162.72152740057521 139059.98178503942
      2300  2884.794594741787 -168.31478742963978 5.5933345141730948 -162.72145291546667 151812.86848591498
      2400  2759.9027755518282 -168.07249347315005 5.351181494305977 -162.72131197884406 164272.05750968843
      2500  2299.7856556072993 -167.18030885933433 4.4590594096907941 -162.72124944964355 168661.90088063595
      2600  2782.4749031683477 -168.11624704456131 5.3949466416360243 -162.72130040292529 156006.84612040882
      2700  3100.4464145813963 -168.73286556286791 6.0114622967028213 -162.72140326616508 142872.10885633653
      2800  2405.1436854328276 -167.384571032542 4.6633383228732255 -162.72123270966878 169116.89964973953
      2900  2611.2163039122374 -167.78414658341103 5.0628929710508981 -162.72125361236013 163356.47312137033
      3000  2620.0343165911399 -167.80125112120498 5.0799902350132005 -162.72126088619177 155201.05621256484
      3100  2910.9691745445907 -168.36533172695309 5.6440844638824617 -162.72124726307064 153200.45177949793
      3200  2288.1846806836011 -167.15771574093958 4.4365662541791151 -162.72114948676045 181977.26612941717
      3300  2850.7927787583671 -168.24863199159645 5.5274083192088925 -162.72122367238757 155383.78365639879
      3400  2937.9360384194065 -168.41756168961007 5.6963705749022715 -162.72119111470781 143749.22670350358
      3500  2485.17534605839 -167.5396672154265 4.8185118837289904 -162.7211553316975 165865.13576912711
      3600  2616.0924455083691 -167.79347613238144 5.0723473325972463 -162.7211287997842 168023.62775363945
      3700  2835.4798360087161 -168.21889510799105 5.4977180212059436 -162.7211770867851 153859.46054846334
      3800  2722.6323311120932 -168.0000676727833 5.2789177485185581 -162.72114992426475 161359.70955235514
      3900  2532.4239456853556 -167.63122404253892 4.9101222963114184 -162.7211017462275 171643.52904211468
      4000  2658.7343393351798 -167.8761315335245 5.1550257932841683 -162.72110574024032 163844.79168267967
      4100  2793.4452849536292 -168.13738068408517 5.4162171387400866 -162.72116354534509 154130.00232230785
      4200  2884.807585724217 -168.31448105908567 5.5933597024171835 -162.72112135666848 160436.06512195742
      4300  2136.0229573870643 -166.86250631990268 4.141539557927711 -162.72096676197498 187699.62406965121
      4400  3030.0428628992381 -168.59606517945977 5.8749566972185603 -162.72110848224122 153034.83583062267
      4500  2266.3200357903747 -167.11520591158254 4.3941728466400356 -162.7210330649425 170512.39601337368
      4600  3238.3115878686003 -168.9999325130882 6.2787693810461329 -162.72116313204205 142272.68677844119
      4700  2105.5709208262965 -166.80353558054856 4.0824960380068598 -162.72103954254169 182515.58413195654
      4800  3017.0288573268895 -168.57089938356719 5.8497238135088709 -162.72117557005834 153711.54320226822
      4900  2897.1523764020239 -168.33842306737225 5.6172950439123035 -162.72112802345995 148572.93544770591
      5000  2593.3856550282967 -167.74941370013937 5.0283210871481643 -162.72109261299121 168788.68193469706
      5100  2541.4533280943824 -167.64871693294171 4.9276293855031872 -162.72108754743851 165360.58597497741
      5200  2945.1172944092118 -168.43139404229015 5.7102943277601366 -162.72109971453003 151796.23283611468
      5300  2787.3599817777081 -168.1254837676469 5.4044183311767586 -162.72106543647013 154607.97506234163
      5400  2667.724559607178 -167.89354162621905 5.1724569509232747 -162.72108467529577 167848.08789717112
      5500  2432.9810044133728 -167.43833356515549 4.7173121611907733 -162.72102140396473 171025.56437630701
      5600  2937.0586642987159 -168.41582587254251 5.6946694323113753 -162.72115644023114 149562.43238687984
      5700  2365.804851066579 -167.3081531329486 4.5870641713585414 -162.72108896159006 169897.54293418085
      5800  3001.2002485304606 -168.54015387892628 5.8190336894862513 -162.72112018944003 154410.47783405634
      5900  2694.573336172155 -167.94564812353192 5.2245141022011978 -162.72113402133073 163613.36475160072
      6000  2332.4246333630599 -167.24340673003132 4.5223431946512145 -162.7210635353801 172714.17472442394
      6100  3006.470146844712 -168.55041145212289 5.8292515067897819 -162.72115994533311 148981.5431483018
      6200  2738.8073707615449 -168.03142063282178 5.3102795680755914 -162.72114106474618 170192.11085846878
      6300  2257.6656290120295 -167.09848396913932 4.3773927985141672 -162.72109117062516 176367.71905559686
      6400  3446.7409413407668 -169.40409826565738 6.6828935078271607 -162.72120475783021 136052.74374654618
      6500  2206.3867382837293 -166.99899968893234 4.2779680457494784 -162.72103164318287 183268.60008969935
      6600  2603.7326859301174 -167.76945486467864 5.0483829678684966 -162.72107189681014 169961.48842991897
      6700  2644.8028194866324 -167.8491139685311 5.1280139391487642 -162.72110002938234 160395.57512586488
      6800  2806.1096041600567 -168.16185819877018 5.440772014794323 -162.72108618397584 159527.0078316
      6900  2502.1154816337626 -167.57247744273354 4.8513571494408749 -162.72112029329267 172053.04891252134
      7000  2817.5745470586403 -168.1841370312917 5.4630014175166375 -162.72113561377506 156007.26151715295
      7100  2495.5513111797031 -167.55972733807585 4.8386298650704287 -162.72109747300541 165508.98417241717
      7200  3151.5852533644365 -168.83179086457474 6.1106155024462323 -162.72117536212852 144584.24964209963
      7300  2478.6877312175943 -167.52697106010228 4.8059330332036092 -162.72103802689867 173927.39354747027
      7400  2330.2033183957178 -167.23901398527607 4.5180362822296747 -162.7209777030464 179411.71220426742
      7500  2593.3047524883577 -167.74921666366967 5.0281642250375134 -162.72105243863217 163414.63372247486
      7600  2806.9163588373517 -168.16343711507568 5.4423362331928224 -162.72110088188285 153568.79434618205
      7700  2803.4516057640485 -168.15667347028614 5.4356184159231562 -162.72105505436298 155266.28123486554
      7800  2202.8216843235473 -166.99208298773669 4.2710557548720898 -162.7210272328646 177850.75490356309
      7900  2934.5605864375011 -168.41097871051019 5.6898259037129471 -162.72115280679725 153399.92204044654
      8000  2828.0103264206273 -168.20434523490371 5.4832353728194141 -162.72110986208429 151434.55118702224
      8100  2720.4479998211018 -167.99577491387041 5.2746825438275344 -162.72109237004287 167269.13599344538
      8200  1996.9571647661078 -166.59290290029475 3.8719045901468401 -162.72099831014791 189066.01872475806
      8300  3259.8400327089053 -169.04164854213442 6.320510929571368 -162.72113761256307 138215.87827542122
      8400  2298.5028163094194 -167.17762893229508 4.4565721097859585 -162.72105682250913 172014.9197517102
      8500  2911.5489474209744 -168.36637412634525 5.6452085867734878 -162.72116553957176 154161.01179478143
      8600  2887.3795579926832 -168.31949138165999 5.598346505042552 -162.72114487661744 160283.69799211842
      8700  2521.6746240780385 -167.61037339364756 4.8892804132672163 -162.72109298038035 170953.13388054352
      8800  2557.9488559181409 -167.68068000963066 4.9596126002784455 -162.72106740935223 162671.38203001404
      8900  2630.0414149947123 -167.82039106516885 5.0993930198733253 -162.72099804529552 157555.97677632546
      9000  2515.3280520421063 -167.59812026966142 4.8769750309429529 -162.72114523871846 171416.84490633645
      9100  2956.5152124738797 -168.45362632887989 5.7323937758861927 -162.72123255299371 155615.93795460454
      9200  3064.3894440454364 -168.66273910500473 5.9415513581067376 -162.72118774689798 147106.35524502123
      9300  2605.4522900363468 -167.77292616827751 5.0517171120102038 -162.7212090562673 160190.07767641314
      9400  2723.0122385757813 -168.00081748227728 5.2796543519262018 -162.72116313035107 165036.45008683327
      9500  2443.0616518082816 -167.45796689913197 4.7368575503501704 -162.72110934878179 159565.35552172182
      9600  2707.2834112721848 -167.97032316066378 5.2491576944570593 -162.72116546620671 165193.5745314495
      9700  2340.6007255016584 -167.25932192914163 4.5381958374817435 -162.7211260916599 175382.10931626961
      9800  3128.072260039954 -168.78627845479184 6.0650261085486328 -162.7212523462432 143863.03250674426
      9900  2218.1350664460624 -167.02188615929904 4.30074690477604 -162.721139254523 171329.78722779531
     10000  2817.9578233504594 -168.18500614243973 5.4637445527524715 -162.72126158968726 157800.93666607243
Loop time of 4.03998 on 1 procs for 10000 steps with 16 atoms

Performance: 106.931 ns/day, 0.224 hours/ns, 2475.259 timesteps/s, 39.604 katom-step/s
100.0% CPU use with 1 MPI tasks x 1 OpenMP threads

MPI task timing breakdown:
Section |  min time  |  avg time  |  max time  |%varavg| %total
---------------------------------------------------------------
Pair    | 4.0126     | 4.0126     | 4.0126     |   0.0 | 99.32
Neigh   | 0.0090363  | 0.0090363  | 0.0090363  |   0.0 |  0.22
Comm    | 0.0076611  | 0.0076611  | 0.0076611  |   0.0 |  0.19
Output  | 0.0054541  | 0.0054541  | 0.0054541  |   0.0 |  0.14
Modify  | 0.0023084  | 0.0023084  | 0.0023084  |   0.0 |  0.06
Other   |            | 0.002947   |            |       |  0.07

Nlocal:             16 ave          16 max          16 min
Histogram: 1 0 0 0 0 0 0 0 0 0
Nghost:            307 ave         307 max         307 min
Histogram: 1 0 0 0 0 0 0 0 0 0
Neighs:            221 ave         221 max         221 min
Histogram: 1 0 0 0 0 0 0 0 0 0
FullNghs:          442 ave         442 max         442 min
Histogram: 1 0 0 0 0 0 0 0 0 0

Total # of neighbors = 442
Ave neighs/atom = 27.625
Neighbor list builds = 447
Dangerous builds = 0
print "YE3T_NVE_END"
YE3T_NVE_END
Total wall time: 0:00:04
