LAMMPS (22 Jul 2025 - Update 4)
OMP_NUM_THREADS environment is not set. Defaulting to 1 thread.
  using 1 OpenMP thread(s) per MPI task
# 2000-step NVT preparation plus 10000-step NVE stability gate.
units metal
atom_style atomic
boundary p p p
atom_modify map yes sort 0 0.0
newton on
lattice bcc 3.1680000000000001
Lattice spacing in x,y,z = 3.168 3.168 3.168
region cell block 0 2 0 2 0 2 units lattice
create_box 1 cell
Created orthogonal box = (0 0 0) to (6.336 6.336 6.336)
  1 by 2 by 2 MPI processor grid
create_atoms 1 box
Created 16 atoms
  using lattice units in orthogonal box = (0 0 0) to (6.336 6.336 6.336)
  create_atoms CPU = 0.000 seconds
mass 1 95.950000000000003
reset_atoms id sort yes
Resetting atom IDs ...
WARNING: Communication cutoff is 0.0. No ghost atoms will be generated. Energies and forces may be wrong and atoms may get lost. (src/comm_brick.cpp:212)
displace_atoms all random 0.01 0.01 0.01 77311 units box
Displacing atoms ...
velocity all create 2316.8000000000002 85230 mom yes rot no dist gaussian
neighbor 0.3 bin
neigh_modify every 1 delay 0 check yes
pair_style hybrid/overlay pace product zbl 1.318026516090159 1.6946055206873472
ACE version: 2025.12.4p1
Product evaluator is used
pair_coeff * * pace models/ace_127/potential.yace Mo
Loading models/ace_127/potential.yace
Total number of basis functions
	Mo: 4 (r=1) 123 (r>1)
Mapping LAMMPS atom type #1(Mo) -> ACE species type #0
pair_coeff * * zbl 42 42
timestep 0.0005
thermo 100
thermo_style custom step temp pe ke etotal press
thermo_modify format float %.17g
fix thermostat all nvt temp 2316.8000000000002 2316.8000000000002 0.05
run 2000
Neighbor list info ...
  update: every = 1 steps, delay = 0 steps, check = yes
  max neighbors/atom: 2000, page size: 100000
  master list distance cutoff = 4.9380492
  ghost atom cutoff = 4.9380492
  binsize = 2.4690246, bins = 3 3 3
  2 neighbor lists, perpetual/occasional/extra = 2 0 0
  (1) pair pace, perpetual
      attributes: full, newton on, cut 4.938049165633363
      pair build: full/bin/atomonly
      stencil: full/bin/3d
      bin: standard
  (2) pair zbl, perpetual, half/full from (1)
      attributes: half, newton on
      pair build: halffull/newton
      stencil: none
      bin: none
Per MPI rank memory allocation (min/avg/max) = 3.585 | 3.585 | 3.585 Mbytes
   Step          Temp          PotEng         KinEng         TotEng         Press     
         0  2316.7999999999997 -173.63532595122047 4.4920485590399997 -169.14327739218047 25366.731109551423
       100  342.46317860932214 -169.49744653883704 0.66400260186302817 -168.83344393697402 102660.31784378603
       200  2075.0104578439441 -171.49488770891989 4.0232422898613693 -167.47164541905852 77524.489609427517
       300  1623.6439947908093 -168.95707346276055 3.1480868729255889 -165.80898658983494 123117.60935053938
       400  3220.0457313422958 -169.89900755532315 6.243353672099043 -163.65565388322412 116460.09083622908
       500  1427.8233128662257 -166.25523441953263 2.7684097268320307 -163.48682469270059 184724.16351822615
       600  3917.289394221591 -170.00749403892956 7.5952409265606757 -162.41225311236889 125523.27455220737
       700  1505.0857086546432 -167.70800346966374 2.9182139540719043 -164.78978951559182 146686.52857250406
       800  2948.1660215688985 -170.11465101528077 5.7162055114810348 -164.39844550379973 113587.42429947479
       900  1234.0966976048646 -167.40136668102625 2.3927927711463894 -165.00857390987986 152944.01240920174
      1000  3407.0648613255016 -170.54956123342902 6.6059654699900889 -163.94359576343894 108708.08662613797
      1100  1585.5085067689452 -166.07921054755491 3.0741458922553102 -163.00506465529961 177872.21212011765
      1200  3754.6671878172856 -168.27887478701035 7.279932376860069 -160.99894241015028 163424.33155187883
      1300  2537.6846636963505 -168.38975606877534 4.9203223139049976 -163.46943375487035 145518.98222061174
      1400  1912.9104272448628 -168.0234817454683 3.7089461879652439 -164.31453555750306 146013.59651296274
      1500  2330.410503817619 -169.21656523740467 4.5184379944948274 -164.69812724290983 122242.65654912736
      1600  2709.6470002265492 -170.34986589575868 5.2537404622214821 -165.0961254335372 106202.33704716356
      1700  999.36568037376901 -167.87647209441982 1.9376722912970556 -165.93879980312278 139197.18595468989
      1800  2879.8849490350335 -170.98915276755906 5.583815191433791 -165.40533757612528 87173.26641962961
      1900  2171.280964176522 -168.83867974877018 4.2099013839779555 -164.62877836479223 131687.85549607265
      2000  2277.3479897484021 -167.13675898255121 4.4155549705550552 -162.72120401199615 174563.79876057481
Loop time of 0.33941 on 4 procs for 2000 steps with 16 atoms

Performance: 254.559 ns/day, 0.094 hours/ns, 5892.578 timesteps/s, 94.281 katom-step/s
82.0% CPU use with 4 MPI tasks x 1 OpenMP threads

MPI task timing breakdown:
Section |  min time  |  avg time  |  max time  |%varavg| %total
---------------------------------------------------------------
Pair    | 0.19363    | 0.22069    | 0.24558    |   4.7 | 65.02
Neigh   | 0.00048135 | 0.00052085 | 0.0005546  |   0.0 |  0.15
Comm    | 0.089089   | 0.11384    | 0.14099    |   6.6 | 33.54
Output  | 0.00015394 | 0.00016892 | 0.00019341 |   0.0 |  0.05
Modify  | 0.0024361  | 0.0025827  | 0.0027517  |   0.2 |  0.76
Other   |            | 0.001606   |            |       |  0.47

Nlocal:              4 ave           6 max           2 min
Histogram: 1 0 0 0 0 2 0 0 0 1
Nghost:          208.5 ave         214 max         205 min
Histogram: 1 1 0 0 1 0 0 0 0 1
Neighs:             56 ave          82 max          34 min
Histogram: 1 0 0 1 1 0 0 0 0 1
FullNghs:          112 ave         166 max          57 min
Histogram: 1 0 0 0 1 1 0 0 0 1

Total # of neighbors = 448
Ave neighs/atom = 28
Neighbor list builds = 75
Dangerous builds = 0
unfix thermostat
reset_timestep 0
fix integrate all nve
dump trajectory all custom 100 trajectory.ace_127.lammpstrj id type x y z vx vy vz fx fy fz
dump_modify trajectory sort id
print "YE3T_NVE_BEGIN"
YE3T_NVE_BEGIN
run 10000
Per MPI rank memory allocation (min/avg/max) = 3.601 | 3.601 | 3.601 Mbytes
   Step          Temp          PotEng         KinEng         TotEng         Press     
         0  2277.3479897484021 -167.13675898255121 4.4155549705550552 -162.72120401199615 174563.79876057481
       100  2680.3926863897459 -167.91826288885323 5.1970192094951715 -162.72124367935805 154209.42830469756
       200  2862.9854750822942 -168.27237656950859 5.5510487646304689 -162.72132780487811 147077.84017383703
       300  2439.6279870586209 -167.45145548519929 4.730200010298832 -162.72125547490046 161542.48439816129
       400  2686.2535254482359 -167.92969173073712 5.2083828030930031 -162.72130892764412 163485.06565764183
       500  2698.1748816923555 -167.95282164194055 5.2314971466436759 -162.72132449529687 155521.50596652605
       600  3152.0481951518318 -168.83287987202647 6.1115131012847117 -162.72136677074175 140911.87962547023
       700  1627.9446102196252 -165.8775831281279 3.1564253455343589 -162.72115778259354 190947.11471316245
       800  3287.7854043815687 -169.09613769132062 6.3746942714886785 -162.72144341983193 137051.44214391161
       900  2588.9756572278093 -167.74107107885246 5.0197705328210542 -162.72130054603142 154336.25508265238
      1000  2433.0608538038491 -167.43872522419784 4.7174669813476404 -162.72125824285021 166415.56404834404
      1100  3186.5210106717541 -168.89975476338901 6.1783525182746626 -162.72140224511435 139957.89042245934
      1200  2171.622288084267 -166.93178088641375 4.2105631776450618 -162.72121770876868 171099.96987142877
      1300  2673.823454239383 -167.90554890517225 5.1842821109907531 -162.7212667941815 158558.98895164943
      1400  2807.2068359438395 -168.16427214688014 5.4428994398863786 -162.72137270699375 152459.02879150672
      1500  2935.4860040209123 -168.4129585592911 5.6916201978782057 -162.7213383614129 148669.14324231126
      1600  2803.8400491647258 -168.15774349805307 5.4363715696775943 -162.72137192837548 156167.21887541644
      1700  2686.1405634468015 -167.92946377110584 5.208163780822729 -162.72129999028311 159400.86303631155
      1800  2834.5848504962123 -168.21730233509734 5.4959827318491561 -162.72131960324819 147307.54602540573
      1900  2685.6957981321807 -167.92858651209227 5.2073014243868467 -162.72128508770541 161420.87600872741
      2000  2339.9482409287134 -167.25819025858959 4.5369307337241063 -162.72125952486547 171128.68011839851
      2100  2996.60080529991 -168.53156970891567 5.8101158190027471 -162.72145388991291 154916.23535104445
      2200  3197.5442436610397 -168.92125288926883 6.1997254886931206 -162.7215274005757 139059.98178504317
      2300  2884.7945947417052 -168.31478742964134 5.5933345141729358 -162.7214529154684 151812.86848591504
      2400  2759.9027755517859 -168.07249347315093 5.3511814943058944 -162.72131197884502 164272.05750966957
      2500  2299.7856556073593 -167.18030885933345 4.4590594096909104 -162.72124944964253 168661.90088063281
      2600  2782.4749031682982 -168.11624704456142 5.3949466416359284 -162.72130040292549 156006.84612040428
      2700  3100.4464145813517 -168.732865562868 6.0114622967027351 -162.72140326616525 142872.10885634235
      2800  2405.1436854328026 -167.38457103254197 4.6633383228731775 -162.72123270966878 169116.89964973938
      2900  2611.2163039121901 -167.78414658341143 5.0628929710508066 -162.72125361236061 163356.47312139111
      3000  2620.0343165911349 -167.80125112120422 5.0799902350131907 -162.72126088619103 155201.05621256842
      3100  2910.9691745445884 -168.36533172695351 5.6440844638824572 -162.72124726307106 153200.45177950157
      3200  2288.1846806836452 -167.15771574094003 4.4365662541792004 -162.72114948676082 181977.26612940826
      3300  2850.7927787581816 -168.2486319915954 5.5274083192085328 -162.72122367238688 155383.78365640424
      3400  2937.9360384195716 -168.41756168961163 5.6963705749025912 -162.72119111470903 143749.22670348405
      3500  2485.1753460584046 -167.53966721542605 4.8185118837290188 -162.72115533169702 165865.13576913663
      3600  2616.0924455083905 -167.79347613238122 5.0723473325972872 -162.72112879978394 168023.62775360773
      3700  2835.4798360086902 -168.21889510799116 5.4977180212058929 -162.72117708678527 153859.4605484753
      3800  2722.6323311122815 -168.00006767278359 5.2789177485189231 -162.72114992426467 161359.70955236445
      3900  2532.4239456852206 -167.63122404253889 4.9101222963111564 -162.72110174622773 171643.52904210545
      4000  2658.7343393353899 -167.87613153352387 5.155025793284576 -162.7211057402393 163844.79168267793
      4100  2793.4452849536906 -168.13738068408637 5.4162171387402056 -162.72116354534617 154130.00232231326
      4200  2884.8075857243125 -168.31448105908433 5.5933597024173691 -162.72112135666697 160436.06512197311
      4300  2136.0229573868496 -166.86250631990274 4.1415395579272953 -162.72096676197543 187699.62406967068
      4400  3030.0428628993373 -168.59606517945821 5.8749566972187521 -162.72110848223946 153034.83583062762
      4500  2266.3200357905766 -167.11520591158285 4.3941728466404273 -162.72103306494242 170512.39601337217
      4600  3238.3115878683166 -168.99993251308808 6.2787693810455831 -162.72116313204251 142272.68677846971
      4700  2105.5709208266908 -166.80353558054884 4.0824960380076236 -162.72103954254121 182515.58413195767
      4800  3017.0288573268026 -168.57089938356674 5.8497238135087022 -162.72117557005805 153711.54320229168
      4900  2897.152376402134 -168.33842306737162 5.6172950439125167 -162.7211280234591 148572.93544770061
      5000  2593.385655028324 -167.74941370013974 5.0283210871482176 -162.72109261299153 168788.68193469913
      5100  2541.4533280944979 -167.64871693294131 4.927629385503411 -162.72108754743789 165360.58597498888
      5200  2945.11729440922 -168.43139404228953 5.7102943277601526 -162.72109971452937 151796.23283613817
      5300  2787.3599817778927 -168.1254837676469 5.4044183311771166 -162.72106543646979 154607.97506233421
      5400  2667.7245596070638 -167.89354162621777 5.1724569509230536 -162.72108467529472 167848.08789717752
      5500  2432.9810044132801 -167.43833356515574 4.7173121611905939 -162.72102140396515 171025.56437629581
      5600  2937.0586642990115 -168.41582587254365 5.6946694323119482 -162.72115644023171 149562.43238686776
      5700  2365.804851066493 -167.30815313294767 4.5870641713583744 -162.72108896158929 169897.54293421606
      5800  3001.2002485307148 -168.54015387892699 5.8190336894867443 -162.72112018944023 154410.47783404903
      5900  2694.5733361721518 -167.94564812353246 5.2245141022011916 -162.72113402133127 163613.36475159629
      6000  2332.4246333634273 -167.24340673003226 4.5223431946519268 -162.72106353538032 172714.17472440988
      6100  3006.4701468441931 -168.55041145212164 5.8292515067887756 -162.72115994533286 148981.54314832669
      6200  2738.8073707620756 -168.03142063282249 5.3102795680766199 -162.72114106474586 170192.11085846322
      6300  2257.6656290119454 -167.09848396914009 4.3773927985140046 -162.7210911706261 176367.71905560422
      6400  3446.7409413408609 -169.40409826565622 6.6828935078273428 -162.72120475782887 136052.74374656475
      6500  2206.3867382837316 -166.99899968893118 4.2779680457494829 -162.7210316431817 183268.60008969356
      6600  2603.7326859301934 -167.76945486467844 5.048382967868644 -162.7210718968098 169961.48842991647
      6700  2644.8028194865096 -167.84911396853113 5.1280139391485262 -162.7211000293826 160395.57512585257
      6800  2806.1096041604478 -168.16185819876986 5.4407720147950815 -162.72108618397479 159527.00783157165
      6900  2502.1154816335024 -167.57247744273329 4.8513571494403704 -162.72112029329293 172053.04891254794
      7000  2817.5745470587103 -168.18413703129215 5.4630014175167734 -162.72113561377537 156007.2615171767
      7100  2495.5513111798318 -167.55972733807556 4.8386298650706783 -162.72109747300487 165508.98417240669
      7200  3151.5852533641259 -168.83179086457494 6.1106155024456301 -162.72117536212932 144584.24964212222
      7300  2478.6877312177639 -167.52697106010055 4.8059330332039378 -162.72103802689662 173927.39354752001
      7400  2330.2033183959388 -167.23901398527408 4.5180362822301037 -162.72097770304399 179411.71220425432
      7500  2593.3047524885519 -167.74921666366984 5.02816422503789 -162.72105243863194 163414.63372248976
      7600  2806.9163588371844 -168.16343711507548 5.4423362331924974 -162.72110088188299 153568.79434618776
      7700  2803.4516057643032 -168.15667347028614 5.43561841592365 -162.72105505436249 155266.28123485358
      7800  2202.8216843236351 -166.99208298773652 4.2710557548722594 -162.72102723286426 177850.7549035461
      7900  2934.560586437437 -168.41097871050891 5.6898259037128227 -162.72115280679608 153399.92204046223
      8000  2828.01032642054 -168.20434523490212 5.4832353728192453 -162.72110986208287 151434.55118701424
      8100  2720.4479998215811 -167.99577491387078 5.2746825438284635 -162.7210923700423 167269.13599344017
      8200  1996.9571647659056 -166.59290290029296 3.8719045901464479 -162.72099831014651 189066.01872474916
      8300  3259.8400327085174 -169.04164854213263 6.3205109295706157 -162.72113761256202 138215.87827546144
      8400  2298.502816309734 -167.1776289322971 4.4565721097865687 -162.72105682251052 172014.91975169777
      8500  2911.5489474208284 -168.36637412634309 5.6452085867732054 -162.72116553956988 154161.01179479746
      8600  2887.3795579928478 -168.31949138166121 5.5983465050428718 -162.72114487661833 160283.69799211912
      8700  2521.6746240779057 -167.61037339364651 4.8892804132669587 -162.72109298037955 170953.13388055735
      8800  2557.9488559178822 -167.68068000962955 4.9596126002779437 -162.7210674093516 162671.38203003499
      8900  2630.0414149946919 -167.82039106516839 5.0993930198732862 -162.72099804529512 157555.9767763314
      9000  2515.3280520424496 -167.59812026966117 4.8769750309436191 -162.72114523871755 171416.84490632967
      9100  2956.5152124725773 -168.45362632887765 5.7323937758836676 -162.72123255299397 155615.93795467512
      9200  3064.3894440468953 -168.66273910500661 5.9415513581095665 -162.72118774689704 147106.35524498409
      9300  2605.452290036465 -167.77292616827845 5.0517171120104329 -162.72120905626801 160190.07767639053
      9400  2723.012238575117 -168.0008174822764 5.2796543519249131 -162.7211631303515 165036.45008684119
      9500  2443.0616518088541 -167.45796689913135 4.7368575503512798 -162.72110934878006 159565.3555217071
      9600  2707.2834112725504 -167.97032316066469 5.249157694457768 -162.72116546620691 165193.57453142069
      9700  2340.6007255019113 -167.25932192914388 4.5381958374822338 -162.72112609166166 175382.10931626731
      9800  3128.0722600398144 -168.78627845479019 6.0650261085483619 -162.72125234624184 143863.03250677008
      9900  2218.1350664460906 -167.02188615929964 4.3007469047760951 -162.72113925452354 171329.78722779982
     10000  2817.9578233504399 -168.18500614244078 5.4637445527524342 -162.72126158968834 157800.93666609807
Loop time of 1.61674 on 4 procs for 10000 steps with 16 atoms

Performance: 267.204 ns/day, 0.090 hours/ns, 6185.289 timesteps/s, 98.965 katom-step/s
83.5% CPU use with 4 MPI tasks x 1 OpenMP threads

MPI task timing breakdown:
Section |  min time  |  avg time  |  max time  |%varavg| %total
---------------------------------------------------------------
Pair    | 1.0445     | 1.0923     | 1.1358     |   4.0 | 67.56
Neigh   | 0.0029817  | 0.0031147  | 0.0032064  |   0.2 |  0.19
Comm    | 0.45648    | 0.50029    | 0.546      |   5.9 | 30.94
Output  | 0.0050236  | 0.0055973  | 0.0067413  |   0.9 |  0.35
Modify  | 0.0014366  | 0.0014968  | 0.0015456  |   0.1 |  0.09
Other   |            | 0.01397    |            |       |  0.86

Nlocal:              4 ave           6 max           2 min
Histogram: 1 0 0 0 0 2 0 0 0 1
Nghost:         211.75 ave         222 max         205 min
Histogram: 1 0 1 1 0 0 0 0 0 1
Neighs:          55.25 ave          82 max          27 min
Histogram: 1 0 0 0 1 1 0 0 0 1
FullNghs:        110.5 ave         163 max          52 min
Histogram: 1 0 0 0 0 2 0 0 0 1

Total # of neighbors = 442
Ave neighs/atom = 27.625
Neighbor list builds = 447
Dangerous builds = 0
print "YE3T_NVE_END"
YE3T_NVE_END
Total wall time: 0:00:01
