LAMMPS (22 Jul 2025 - Update 4)
OMP_NUM_THREADS environment is not set. Defaulting to 1 thread.
  using 1 OpenMP thread(s) per MPI task
# 2000-step NVT preparation plus 10000-step NVE stability gate.
units metal
atom_style atomic
boundary p p p
atom_modify map yes sort 0 0.0
newton on
lattice bcc 3.1680000000000001
Lattice spacing in x,y,z = 3.168 3.168 3.168
region cell block 0 2 0 2 0 2 units lattice
create_box 1 cell
Created orthogonal box = (0 0 0) to (6.336 6.336 6.336)
  1 by 2 by 2 MPI processor grid
create_atoms 1 box
Created 16 atoms
  using lattice units in orthogonal box = (0 0 0) to (6.336 6.336 6.336)
  create_atoms CPU = 0.000 seconds
mass 1 95.950000000000003
reset_atoms id sort yes
Resetting atom IDs ...
WARNING: Communication cutoff is 0.0. No ghost atoms will be generated. Energies and forces may be wrong and atoms may get lost. (src/comm_brick.cpp:212)
displace_atoms all random 0.01 0.01 0.01 78320 units box
Displacing atoms ...
velocity all create 2316.8000000000002 86239 mom yes rot no dist gaussian
neighbor 0.3 bin
neigh_modify every 1 delay 0 check yes
pair_style hybrid/overlay ye3t model_family tagged_cauchy block_policy direct zbl 1.318026516090159 1.6946055206873472
YE3T configuration: model_family tagged_cauchy, source_realization model_default, chunksize 4096, block_policy direct, plan none, auto_replay none
pair_coeff * * ye3t models/ye3t_tagged_127/model.ye3t.json Mo
YE3T CPU dispatch: PACE-compatible spline/half-complex source with split-real harmonics, exact signed-m expansion/collapse, tiled split-real symmetric-power forward/adjoint, source_model e3357aa905ca1f6f6a3f8a52fbf862685a3503cdc164f4421c0da50cbda74440, direct_logical_plan 67e99966107b075e5b37178d306b3a44401c0e1c501ee684dcd41c26ad6eec04
YE3T CPU source schedule: complete environments in 8/16-center batches, soft cache target 1048576 bytes (992 edges), no source-table replay; chunksize is an outer packing limit, not a memory limit
YE3T self-contained composite: ordinary model 2f6e3a7aafa328a4ebb7c15757269c3e7084df1ad01cedbb7896eb8f2fcec927, tagged model cf07f1c138cb4d5bfffc89e345525535afe352d6b3548109f3a2d1ff2b7380fb, manifest e3357aa905ca1f6f6a3f8a52fbf862685a3503cdc164f4421c0da50cbda74440, ordinary evaluator compiled_direct, tagged evaluator compiled_direct
YE3T tagged-Cauchy CPU dispatch: real-arithmetic exact moment reduction, evaluator compiled_direct, portfolio a61d96643159999a11b586822526f8a5cb2995f63e6f3633f6e4f21db40d0526, tag_count 2, feature_count 69, model_self_hash 67e99966107b075e5b37178d306b3a44401c0e1c501ee684dcd41c26ad6eec04
Loaded YE3T tagged-Cauchy potential models/ye3t_tagged_127/model.ye3t.json
pair_coeff * * zbl 42 42
timestep 0.0005
thermo 100
thermo_style custom step temp pe ke etotal press
thermo_modify format float %.17g
fix thermostat all nvt temp 2316.8000000000002 2316.8000000000002 0.05
run 2000
Neighbor list info ...
  update: every = 1 steps, delay = 0 steps, check = yes
  max neighbors/atom: 2000, page size: 100000
  master list distance cutoff = 4.9380492
  ghost atom cutoff = 4.9380492
  binsize = 2.4690246, bins = 3 3 3
  2 neighbor lists, perpetual/occasional/extra = 2 0 0
  (1) pair ye3t, perpetual
      attributes: full, newton on, cut 4.938049165633363
      pair build: full/bin/atomonly
      stencil: full/bin/3d
      bin: standard
  (2) pair zbl, perpetual, half/full from (1)
      attributes: half, newton on
      pair build: halffull/newton
      stencil: none
      bin: none
Per MPI rank memory allocation (min/avg/max) = 8.195 | 8.267 | 8.339 Mbytes
   Step          Temp          PotEng         KinEng         TotEng         Press     
         0  2316.8000000000006 -173.64816496837824 4.4920485590400014 -169.15611640933824 30595.033917989273
       100  347.09841656146119 -169.52133109781715 0.67298987481007322 -168.84834122300708 87206.644971295158
       200  2044.0686268407978 -171.43032559251878 3.9632491064308866 -167.4670764860879 74002.338285540565
       300  1606.9228257593911 -168.95612329299951 3.1156661619220296 -165.84045713107747 106745.47675622581
       400  2775.9117410565223 -169.10835475427569 5.3822213123425282 -163.72613344193317 125579.59458419956
       500  2025.7626449999859 -167.20752280179161 3.9277555984242256 -163.27976720336738 141705.81130188669
       600  2814.32425967993 -168.5993449676867 5.4566994282486814 -163.14264553943804 138129.6557537023
       700  1652.2434461620899 -168.01821722412814 3.2035384113931715 -164.81467881273497 129370.78282516921
       800  2371.4847974350428 -169.94957806516072 4.5980770317262394 -165.35150103343449 95626.904522571669
       900  2032.2919269604056 -169.79576539706983 3.9404152374184718 -165.85535015965135 98414.810301251215
      1000  1666.4075180364418 -169.19421626716004 3.2310011611572089 -165.96321510600285 105849.21396683596
      1100  3081.764744787667 -169.94020534732513 5.9752403665071281 -163.964964980818 110439.53082052288
      1200  1754.1959519661486 -166.87841205311946 3.4012143466433615 -163.47719770647609 150918.67689024241
      1300  4049.3711972432743 -169.6621865061509 7.8513346217173394 -161.81085188443356 121983.65100199677
      1400  2001.6935038145059 -167.38236743379906 3.8810878882293167 -163.50127954556973 146897.25876001219
      1500  2468.981388022833 -169.19774437550882 4.7871133832719899 -164.41063099223683 125321.25256829501
      1600  2284.2967070725504 -169.1043265582318 4.4290278536883063 -164.67529870454351 108608.43993178647
      1700  2712.1692407884584 -169.63759654222474 5.2586308399328408 -164.37896570229191 106659.84635728583
      1800  1279.3750568282255 -167.28765375559061 2.4805830803249953 -164.80707067526561 142516.34056111146
      1900  3562.1434416410411 -170.36108437614632 6.9066476666598007 -163.45443670948652 106526.31413046332
      2000  1410.9163134453277 -166.49807757281582 2.7356287088821278 -163.76244886393368 159394.92981275378
Loop time of 0.291985 on 4 procs for 2000 steps with 16 atoms

Performance: 295.906 ns/day, 0.081 hours/ns, 6849.667 timesteps/s, 109.595 katom-step/s
74.9% CPU use with 4 MPI tasks x 1 OpenMP threads

MPI task timing breakdown:
Section |  min time  |  avg time  |  max time  |%varavg| %total
---------------------------------------------------------------
Pair    | 0.1832     | 0.19531    | 0.20572    |   1.8 | 66.89
Neigh   | 0.00056037 | 0.00059114 | 0.00061014 |   0.0 |  0.20
Comm    | 0.081413   | 0.091439   | 0.1037     |   2.6 | 31.32
Output  | 0.00017471 | 0.00018605 | 0.00021764 |   0.0 |  0.06
Modify  | 0.0025369  | 0.0029409  | 0.0032154  |   0.5 |  1.01
Other   |            | 0.001517   |            |       |  0.52

Nlocal:              4 ave           5 max           3 min
Histogram: 1 0 0 0 0 2 0 0 0 1
Nghost:            208 ave         211 max         204 min
Histogram: 1 0 1 0 0 0 0 0 0 2
Neighs:          55.25 ave          75 max          36 min
Histogram: 1 0 0 0 1 1 0 0 0 1
FullNghs:        110.5 ave         137 max          84 min
Histogram: 1 0 0 0 1 1 0 0 0 1

Total # of neighbors = 442
Ave neighs/atom = 27.625
Neighbor list builds = 79
Dangerous builds = 0
unfix thermostat
reset_timestep 0
fix integrate all nve
dump trajectory all custom 100 trajectory.ye3t_tagged_127.lammpstrj id type x y z vx vy vz fx fy fz
dump_modify trajectory sort id
print "YE3T_NVE_BEGIN"
YE3T_NVE_BEGIN
run 10000
Per MPI rank memory allocation (min/avg/max) = 8.424 | 8.5 | 8.587 Mbytes
   Step          Temp          PotEng         KinEng         TotEng         Press     
         0  1410.9163134453277 -166.49807757281582 2.7356287088821278 -163.76244886393368 159394.92981275512
       100  2881.9260947545067 -169.35043118270798 5.5877727733087692 -163.76265840939922 118042.03640084679
       200  2438.1060780837511 -168.48985953617751 4.7272491776773053 -163.76261035850021 128540.17927255787
       300  2227.3512735680947 -168.08121687592751 4.3186162288101988 -163.76260064711732 140339.9943426135
       400  2789.3344519428429 -169.17095295274351 5.408246635674411 -163.7627063170691 113481.9708435198
       500  2513.9731268615747 -168.63695165437866 4.8743479635634586 -163.76260369081521 133251.16393341037
       600  2159.7554759375162 -167.95013433311362 4.1875545897634101 -163.76257974335022 141026.2776962755
       700  2629.4781891679918 -168.86092476409533 5.0983009800928807 -163.76262378400244 119415.61303550737
       800  2428.0547125950939 -168.47037781080857 4.7077605632696278 -163.76261724753894 132088.12434505188
       900  2599.2626492449358 -168.802373481394 5.0397160040172686 -163.76265747737673 116877.11047617365
      1000  2523.2201945940606 -168.65484530613637 4.8922771233023479 -163.76256818283403 133406.79196423825
      1100  2070.4750222391976 -167.77700410633508 4.0144485239027539 -163.76255558243233 142847.17319771694
      1200  2688.7039313801415 -168.97577867846357 5.2131339004840074 -163.76264477797957 119634.13999985007
      1300  2176.8042384044629 -167.98316753826776 4.2206104723916322 -163.76255706587614 143046.08358308105
      1400  2712.9067562703053 -169.02273357442851 5.2600608103046902 -163.76267276412383 120950.65212592497
      1500  2289.8259444735072 -168.20233911867646 4.4397485041111127 -163.76259061456534 138268.42088261875
      1600  2619.9322274339402 -168.84240449579988 5.0797922941242613 -163.76261220167561 131517.3065677273
      1700  2369.8035505319258 -168.35743829393283 4.5948172584490736 -163.76262103548376 134910.03857598087
      1800  2022.6141010076333 -167.68415257078243 3.9216508796293699 -163.76250169115306 141378.81028580305
      1900  2941.5222017217352 -169.46597355545197 5.7033237947290614 -163.76264976072289 113324.08801963017
      2000  2157.420414192929 -167.94561295716369 4.1830271334680713 -163.76258582369562 138681.14397983139
      2100  2508.9344466785114 -168.62719396236491 4.8645784555973872 -163.76261550676753 133875.25255603204
      2200  2805.8514874290126 -169.20298033619753 5.4402715517030984 -163.76270878449444 114898.21542252488
      2300  2402.881763078929 -168.42159601735941 4.6589526767015705 -163.76264334065783 133998.77428798203
      2400  2365.7750724024008 -168.3495938530902 4.5870064334417977 -163.76258741964841 135285.98837847656
      2500  2698.281265812373 -168.99433778140013 5.2317034150453638 -163.76263436635477 130368.58815015927
      2600  1999.3796065491088 -167.63918670793055 3.8766014677887113 -163.76258524014185 142832.74240569636
      2700  3079.2296393801435 -169.7330388143684 5.9703250451186261 -163.76271376924979 108127.43770529554
      2800  2279.221917371136 -168.18177517333623 4.4191883328985657 -163.76258684043768 145184.94512480925
      2900  1907.3833851961515 -167.46075418778426 3.6982297941156812 -163.76252439366857 149197.05164742496
      3000  3131.7746775924957 -169.83495727247123 6.0722047339940142 -163.7627525384772 108831.74294443247
      3100  2211.8484714364231 -168.05120133541502 4.2885578120385066 -163.76264352337651 134583.23820539299
      3200  2292.1777574082771 -168.20693542121836 4.444308439325531 -163.76262698189282 140943.4434932397
      3300  2819.2874207089426 -169.22905778341914 5.4663225119627095 -163.76273527145642 121004.06504960472
      3400  2557.5828608823649 -168.72164206012275 4.9589029717075404 -163.7627390884152 130890.78777965503
      3500  2652.4746141839487 -168.90563951111625 5.1428887985735443 -163.7627507125427 123816.23887285838
      3600  2916.6386099681795 -169.41780293676479 5.6550769445562805 -163.76272599220852 119518.76433156287
      3700  1351.4695526944427 -166.38283364657769 2.6203672551655321 -163.76246639141218 170877.60417750056
      3800  3393.3836538535284 -170.34223080162946 6.5794389470660537 -163.7627918545634 100187.47338315028
      3900  2224.5025110594465 -168.07575273196562 4.3130927569861228 -163.7626599749795 136583.87543791393
      4000  2403.9238263204165 -168.42362865622306 4.6609731353869783 -163.76265552083609 134846.0242864445
      4100  2463.2779950810618 -168.53870345614513 4.7760550622923104 -163.76264839385283 128349.56280527734
      4200  2366.3234914111149 -168.35070730622638 4.588069764250605 -163.76263754197578 136828.22652835326
      4300  2377.6482246170708 -168.37269425603785 4.6100273140949275 -163.76266694194291 129904.77072282966
      4400  2489.0591935229836 -168.58867243822675 4.8260422840254593 -163.7626301542013 138017.40527636936
      4500  2283.0527058311968 -168.1892960868723 4.4266158569757428 -163.76268022989657 139409.12865732194
      4600  2901.242227505722 -169.38797984201014 5.6252248651126893 -163.76275497689744 115631.58758954446
      4700  2202.5579548097526 -168.03315191744409 4.2705444091441809 -163.76260750829991 143899.60498953133
      4800  2652.7482190723349 -168.90615433683433 5.143419291686727 -163.76273504514759 128530.77668631452
      4900  2284.0851900374068 -168.19125906636398 4.4286177428488172 -163.76264132351517 140760.13001383041
      5000  2433.4752016099424 -168.48094376167941 4.7182703612100809 -163.76267340046934 137513.19462553624
      5100  2718.2570176453723 -169.03319168339115 5.2704344437216264 -163.76275723966953 118609.51774535254
      5200  2249.4213865307338 -168.12407502759308 4.3614080188359559 -163.76266700875712 138572.2825900499
      5300  2882.2166947941355 -169.35107113403288 5.5883362183576608 -163.76273491567522 118672.66187709937
      5400  2059.7603976043315 -167.75627773313354 3.9936739148939036 -163.76260381823965 144839.57656222506
      5500  2142.6545872081756 -167.91698746841217 4.1543976394116591 -163.76258982900052 147729.93702761646
      5600  2891.6890681584623 -169.36946694330317 5.6067022236761659 -163.762764719627 110916.5938059242
      5700  2403.9029745797116 -168.42361673101922 4.6609327059015726 -163.76268402511766 137446.85190821943
      5800  2171.8998411714147 -167.97373654917391 4.2111013259294108 -163.7626352232445 136922.73679148135
      5900  2922.0968297583572 -169.42836540424207 5.6656598987790838 -163.76270550546297 115427.36641264404
      6000  1726.5569358045107 -167.11021725143732 3.3476249980927011 -163.76259225334462 151876.31257872007
      6100  3256.3094679517103 -170.07643472425929 6.3136655098846646 -163.76276921437463 109245.49980485509
      6200  1587.6865795712977 -166.84086518172367 3.0783689623490997 -163.76249621937458 164234.65830039463
      6300  2674.023512252274 -168.94738280720406 5.1846700039070734 -163.76271280329698 126979.90873633539
      6400  3005.9541730376604 -169.59106065221087 5.8282510840530461 -163.76280956815782 108406.32192405335
      6500  2127.394173746125 -167.88745810840794 4.1248091905586897 -163.76264891784925 146207.63526868462
      6600  2746.733868213566 -169.08839045189234 5.3256482712254467 -163.76274218066689 121602.53245767744
      6700  2306.9026109612705 -168.23548453375048 4.4728584899059864 -163.76262604384451 137540.25146735393
      6800  2483.9887624329804 -168.57888248843096 4.8162112141568638 -163.76267127427411 127665.89607698894
      6900  2327.5401394528903 -168.27553720351824 4.5128726387850122 -163.76266456473323 125656.00736826037
      7000  2576.6686216507592 -168.75857447673474 4.9959083947729095 -163.76266608196184 135446.59875053886
      7100  2504.3840618275212 -168.61851514468023 4.855755704512716 -163.76275944016751 119489.45649149068
      7200  2910.9643524687235 -169.40679568292444 5.6440751143490751 -163.76272056857536 118233.93166750429
      7300  1781.8667349374205 -167.21738555965726 3.4548652879303132 -163.76252027172694 153246.66033654014
      7400  2868.8374793006114 -169.32511752074254 5.5623952283374729 -163.76272229240507 117278.01565964454
      7500  2208.9140078246537 -168.04552215263982 4.2828681741591881 -163.76265397848064 136144.37463278693
      7600  3093.1200357536186 -169.76002556070216 5.9972571648587696 -163.76276839584338 106852.65822559845
      7700  1946.626485136939 -167.53687782122103 3.7743183259446162 -163.76255949527641 150657.68110190376
      7800  2374.9817082674658 -168.36746655250613 4.6048571997450054 -163.76260935276113 136137.58667906688
      7900  3072.8584629196962 -169.72071588499347 5.9579719572221563 -163.76274392777131 103273.35270657217
      8000  1682.3291679603983 -167.02441122191973 3.2618716828243568 -163.76253953909537 155172.51378216199
      8100  3021.6420174742893 -169.62139731916329 5.8586682797522878 -163.762729039411 113202.12983664603
      8200  2467.7635880323464 -168.54743617401158 4.784752188221721 -163.76268398578986 127527.05794126776
      8300  2353.6591596387652 -168.32613895185941 4.5635148638322747 -163.76262408802714 131126.84858457258
      8400  2704.3405240069046 -169.00614292380016 5.2434517239376275 -163.76269119986253 119315.23600258969
      8500  2185.2718858615949 -167.99962226567962 4.2370284124633981 -163.76259385321623 150355.22625415109
      8600  2474.3070260540926 -168.56015640091812 4.7974392744340619 -163.76271712648406 120255.76122182372
      8700  3174.2025147799541 -169.91725063021698 6.1544681597973225 -163.76278247041967 103980.28668343175
      8800  1513.3032318674282 -166.69662395192171 2.9341469277022858 -163.76247702421944 168019.55431418243
      8900  2983.5708985533615 -169.54760154077908 5.7848521044718177 -163.76274943630727 113668.3974842477
      9000  2581.3247867079981 -168.76763844874853 5.0049362433295492 -163.76270220541898 120520.39381555447
      9100  2388.130268892146 -168.39299751337964 4.6303509725383165 -163.76264654084133 135375.383098533
      9200  2309.4219412849361 -168.24037043213389 4.4777432249500855 -163.76262720718381 135881.99878853624
      9300  2473.8508752613757 -168.55918550582146 4.7965548426699351 -163.76263066315153 138365.58394276787
      9400  2652.2556131862348 -168.90516556011809 5.1424641770627497 -163.76270138305534 115676.29516587273
      9500  2577.0791752449195 -168.75934135294199 4.996704418029581 -163.76263693491239 130726.79583021824
      9600  1981.7490040518549 -167.60496572267789 3.8424174542602256 -163.76254826841767 148062.70192711047
      9700  3075.9853936171548 -169.72678283805303 5.9640347699525327 -163.76274806810051 108272.17859906235
      9800  2118.015336275857 -167.86920789963364 4.1066245421886158 -163.76258335744501 139540.47490188922
      9900  2340.5203898756372 -168.30063128331534 4.5380400745617209 -163.76259120875363 137526.20589542636
     10000  2572.6373959808584 -168.75070844651657 4.9880922425536225 -163.76261620396295 129678.40477100844
Loop time of 1.44883 on 4 procs for 10000 steps with 16 atoms

Performance: 298.171 ns/day, 0.080 hours/ns, 6902.104 timesteps/s, 110.434 katom-step/s
83.4% CPU use with 4 MPI tasks x 1 OpenMP threads

MPI task timing breakdown:
Section |  min time  |  avg time  |  max time  |%varavg| %total
---------------------------------------------------------------
Pair    | 0.8919     | 0.96939    | 1.0511     |   7.3 | 66.91
Neigh   | 0.0028604  | 0.0030354  | 0.0032147  |   0.3 |  0.21
Comm    | 0.3752     | 0.45538    | 0.53224    |  10.5 | 31.43
Output  | 0.0050497  | 0.0055234  | 0.0065008  |   0.8 |  0.38
Modify  | 0.0014437  | 0.0014855  | 0.0015431  |   0.1 |  0.10
Other   |            | 0.01402    |            |       |  0.97

Nlocal:              4 ave           7 max           2 min
Histogram: 2 0 0 0 0 0 1 0 0 1
Nghost:         207.25 ave         218 max         198 min
Histogram: 2 0 0 0 0 0 0 0 1 1
Neighs:           54.5 ave          98 max          24 min
Histogram: 2 0 0 0 0 1 0 0 0 1
FullNghs:          109 ave         191 max          52 min
Histogram: 2 0 0 0 0 1 0 0 0 1

Total # of neighbors = 436
Ave neighs/atom = 27.25
Neighbor list builds = 417
Dangerous builds = 0
print "YE3T_NVE_END"
YE3T_NVE_END
Total wall time: 0:00:01
