LAMMPS (22 Jul 2025 - Update 4)
OMP_NUM_THREADS environment is not set. Defaulting to 1 thread.
  using 1 OpenMP thread(s) per MPI task
# 2000-step NVT preparation plus 10000-step NVE stability gate.
units metal
atom_style atomic
boundary p p p
atom_modify map yes sort 0 0.0
newton on
lattice fcc 3.621
Lattice spacing in x,y,z = 3.621 3.621 3.621
region cell block 0 2 0 2 0 2 units lattice
create_box 1 cell
Created orthogonal box = (0 0 0) to (7.242 7.242 7.242)
  1 by 1 by 1 MPI processor grid
create_atoms 1 box
Created 32 atoms
  using lattice units in orthogonal box = (0 0 0) to (7.242 7.242 7.242)
  create_atoms CPU = 0.000 seconds
mass 1 63.545999999999999
reset_atoms id sort yes
Resetting atom IDs ...
WARNING: Communication cutoff is 0.0. No ghost atoms will be generated. Energies and forces may be wrong and atoms may get lost. (src/comm_brick.cpp:212)
displace_atoms all random 0.01 0.01 0.01 78316 units box
Displacing atoms ...
velocity all create 1086.2160000000001 86235 mom yes rot no dist gaussian
neighbor 0.3 bin
neigh_modify every 1 delay 0 check yes
pair_style hybrid/overlay ye3t model_family tagged_cauchy block_policy direct zbl 1.2826759996174664 1.6491548566510283
YE3T configuration: model_family tagged_cauchy, source_realization model_default, chunksize 4096, block_policy direct, plan none, auto_replay none
pair_coeff * * ye3t models/ye3t_tagged_127/model.ye3t.json Cu
YE3T CPU dispatch: PACE-compatible spline/half-complex source with split-real harmonics, exact signed-m expansion/collapse, tiled split-real symmetric-power forward/adjoint, source_model fb22139f16fb30e1ede086b8ef65b02ea55e4813a6d91f445d4ab3ddef033616, direct_logical_plan 244a7fa151c963d8b737e053b51494c665b44c806020223e4e8dc50cd5dbb573
YE3T CPU source schedule: complete environments in 8/16-center batches, soft cache target 1048576 bytes (992 edges), no source-table replay; chunksize is an outer packing limit, not a memory limit
YE3T self-contained composite: ordinary model 465f2d8acfb533dda8b847b80dae9d7c0b59b7c0ef1e4452a4c6111f2d17e49c, tagged model abd7e735c2a738015efd2fc78a574584281c3ee41050d50c17a00ac9c249bafb, manifest fb22139f16fb30e1ede086b8ef65b02ea55e4813a6d91f445d4ab3ddef033616, ordinary evaluator compiled_direct, tagged evaluator compiled_direct
YE3T tagged-Cauchy CPU dispatch: real-arithmetic exact moment reduction, evaluator compiled_direct, portfolio 2aea5ffbbccd5f94f2c85d3dead252c941d90684e68ec879fc8346460a9205e2, tag_count 2, feature_count 69, model_self_hash 244a7fa151c963d8b737e053b51494c665b44c806020223e4e8dc50cd5dbb573
Loaded YE3T tagged-Cauchy potential models/ye3t_tagged_127/model.ye3t.json
pair_coeff * * zbl 29 29
timestep 0.0005
thermo 100
thermo_style custom step temp pe ke etotal press
thermo_modify format float %.17g
fix thermostat all nvt temp 1086.2160000000001 1086.2160000000001 0.05
run 2000
Neighbor list info ...
  update: every = 1 steps, delay = 0 steps, check = yes
  max neighbors/atom: 2000, page size: 100000
  master list distance cutoff = 4.9380492
  ghost atom cutoff = 4.9380492
  binsize = 2.4690246, bins = 3 3 3
  2 neighbor lists, perpetual/occasional/extra = 2 0 0
  (1) pair ye3t, perpetual
      attributes: full, newton on, cut 4.938049165633363
      pair build: full/bin/atomonly
      stencil: full/bin/3d
      bin: standard
  (2) pair zbl, perpetual, half/full from (1)
      attributes: half, newton on
      pair build: halffull/newton
      stencil: none
      bin: none
Per MPI rank memory allocation (min/avg/max) = 9.367 | 9.367 | 9.367 Mbytes
   Step          Temp          PotEng         KinEng         TotEng         Press     
         0  1086.2160000000001 -131.20544152876863 4.3525375675009208 -126.85290396126771 30330.622275341459
       100  352.05050246411361 -127.87846450164864 1.4106890688708598 -126.46777543277777 67465.5894410818
       200  640.74369826617919 -127.90356698117523 2.5675013237174 -125.33606565745784 70486.43541824627
       300  1091.4706499426795 -128.01606828378672 4.3735932887198858 -123.64247499506683 75645.467678995949
       400  1046.2393863155235 -126.65287427950119 4.1923486981755236 -122.46052558132567 90268.507532629796
       500  1160.5482843254122 -125.95625572633344 4.650391824853525 -121.30586390147991 104732.96492993763
       600  1538.0248115469494 -127.32365436646469 6.1629646147788479 -121.16068975168585 90686.505492737604
       700  683.33434072658929 -125.48463142063187 2.7381647749397486 -122.74646664569212 101838.77824724473
       800  1428.1155049211409 -127.99060236117768 5.7225509345285017 -122.26805142664918 77069.37061727501
       900  1013.6047553853717 -127.10093039253618 4.0615796272678839 -123.0393507652683 85701.297503365233
      1000  830.56645073908487 -126.97779084307999 3.328133335494754 -123.64965750758523 84099.107319521936
      1100  1048.7205465201935 -127.01864470267873 4.2022908671380632 -122.81635383554067 87447.181922235395
      1200  1303.2929323029582 -126.59409434734673 5.2223788356156229 -121.3717155117311 97718.666891483866
      1300  1176.3705308118672 -126.45924443115001 4.7137925869805368 -121.74545184416948 96482.645069342761
      1400  1169.8443739546026 -127.24186368784692 4.6876418555489909 -122.55422183229793 85012.240703082323
      1500  1151.2489448778763 -128.05109156679691 4.613128771926351 -123.43796279487056 73722.197743119643
      1600  606.7265027696784 -126.97195699430142 2.4311922274238977 -124.54076476687753 82434.052569774649
      1700  882.85499732151266 -128.33650278213565 3.5376569140003538 -124.7988458681353 66660.037143058071
      1800  1024.2453834090459 -127.66717696006927 4.1042173100260504 -123.56295965004323 78844.782260784486
      1900  1092.6320069698488 -126.76064685066999 4.3782469212294739 -122.38239992944051 87330.86599866701
      2000  973.95116096894833 -125.5324749499153 3.902685116982703 -121.62978983293259 108015.41907031201
Loop time of 2.12811 on 1 procs for 2000 steps with 32 atoms

Performance: 40.599 ns/day, 0.591 hours/ns, 939.800 timesteps/s, 30.074 katom-step/s
100.0% CPU use with 1 MPI tasks x 1 OpenMP threads

MPI task timing breakdown:
Section |  min time  |  avg time  |  max time  |%varavg| %total
---------------------------------------------------------------
Pair    | 2.1185     | 2.1185     | 2.1185     |   0.0 | 99.55
Neigh   | 0.0034794  | 0.0034794  | 0.0034794  |   0.0 |  0.16
Comm    | 0.0022235  | 0.0022235  | 0.0022235  |   0.0 |  0.10
Output  | 0.00030378 | 0.00030378 | 0.00030378 |   0.0 |  0.01
Modify  | 0.0026752  | 0.0026752  | 0.0026752  |   0.0 |  0.13
Other   |            | 0.0009435  |            |       |  0.04

Nlocal:             32 ave          32 max          32 min
Histogram: 1 0 0 0 0 0 0 0 0 0
Nghost:            333 ave         333 max         333 min
Histogram: 1 0 0 0 0 0 0 0 0 0
Neighs:            699 ave         699 max         699 min
Histogram: 1 0 0 0 0 0 0 0 0 0
FullNghs:         1398 ave        1398 max        1398 min
Histogram: 1 0 0 0 0 0 0 0 0 0

Total # of neighbors = 1398
Ave neighs/atom = 43.6875
Neighbor list builds = 71
Dangerous builds = 0
unfix thermostat
reset_timestep 0
fix integrate all nve
dump trajectory all custom 100 trajectory.ye3t_tagged_127.lammpstrj id type x y z vx vy vz fx fy fz
dump_modify trajectory sort id
print "YE3T_NVE_BEGIN"
YE3T_NVE_BEGIN
run 10000
Per MPI rank memory allocation (min/avg/max) = 9.475 | 9.475 | 9.475 Mbytes
   Step          Temp          PotEng         KinEng         TotEng         Press     
         0  973.95116096894833 -125.5324749499153 3.902685116982703 -121.62978983293259 108015.41907031201
       100  1386.9937702039274 -127.18762538838681 5.5577734913703472 -121.62985189701647 88080.360241655129
       200  1033.5937949301401 -125.7715112782634 4.1416769979168757 -121.62983428034653 102538.5664736636
       300  1054.2001821525703 -125.85409889516706 4.2242481205260978 -121.62985077464096 100616.74134375752
       400  1475.8350692373276 -127.5437119247207 5.9137663064167629 -121.62994561830394 83873.130867540851
       500  1256.507599486212 -126.66483550164605 5.0349069895988814 -121.62992851204717 90047.044045791845
       600  945.11001530104386 -125.41695638166433 3.7871167861817199 -121.62983959548262 107328.81356262552
       700  1423.5597873858576 -127.33418558003984 5.7042958805436195 -121.62988969949622 86422.17393846545
       800  1032.0287559315382 -125.76520804071757 4.1354057857122877 -121.62980225500527 104658.89160196243
       900  1050.9739438786835 -125.8411603244177 4.2113203756863955 -121.6298399487313 101938.94913372246
      1000  1472.1611732104645 -127.52897326034835 5.8990447680891984 -121.62992849225915 86577.678431018605
      1100  1041.3788892244911 -125.80272707785076 4.1728723728539965 -121.62985470499676 104767.72975921219
      1200  1098.8772016242599 -126.03315691883734 4.4032718189935283 -121.6298850998438 99529.668796649421
      1300  1453.6572300109326 -127.45481669201993 5.8248982742768574 -121.62991841774307 86130.66217807628
      1400  1093.6214499826949 -126.01208931182018 4.3822116831960756 -121.6298776286241 101032.50904602076
      1500  1298.1019670044434 -126.83150182046106 5.201578302873167 -121.62992351758788 91389.092238265104
      1600  1234.2072268621207 -126.57547112253607 4.9455479582316144 -121.62992316430446 95596.696136675848
      1700  1280.8411641324674 -126.76232740910615 5.1324131525296783 -121.62991425657647 94237.365454973144
      1800  1187.4796033413786 -126.38817772847233 4.758307357085922 -121.6298703713864 97483.340085368574
      1900  1235.8110621058918 -126.58186620519081 4.9519746294927591 -121.62989157569805 94001.972403712934
      2000  1148.9695838246862 -126.23387082379867 4.603995225178827 -121.62987559861985 98767.203906952593
      2100  1200.4448562849918 -126.44009055560747 4.8102599618249693 -121.6298305937825 96620.885506175066
      2200  1003.153833126323 -125.64952219033694 4.0197021077436439 -121.6298200825933 108296.03883972956
      2300  1356.0027143186185 -127.06351557064207 5.4335903316697651 -121.62992523897231 87886.309087266767
      2400  1252.8032243464945 -126.64996994920219 5.0200633195003581 -121.62990662970184 95490.28517479224
      2500  1182.3739834167684 -126.36773814671031 4.7378488087610524 -121.62988933794925 97665.071427276343
      2600  1132.3440120839932 -126.16727469200043 4.5373754869476208 -121.62989920505281 99401.638029461945
      2700  1359.8556690861296 -127.07896102819316 5.4490293699194998 -121.62993165827366 90236.476831136111
      2800  1159.1633035041236 -126.27474939236163 4.6448421173782837 -121.62990727498334 99757.949334738805
      2900  1377.6846243646605 -127.15051076523125 5.5204711435990435 -121.63003962163221 88459.232789489717
      3000  1420.4449987989017 -127.32178575526663 5.6918147217873969 -121.62997103347924 90222.109922295203
      3100  1111.3701804103052 -126.0831868316921 4.4533319907238793 -121.62985484096822 102137.2818031316
      3200  1124.9103290692797 -126.13747027570255 4.5075882396722777 -121.62988203603028 98990.949949543705
      3300  1185.074098361134 -126.37852880126229 4.7486683434870383 -121.62986045777525 99150.794875538937
      3400  1342.8941790051324 -127.01099375962949 5.3810635852336413 -121.62993017439584 92100.085090261375
      3500  1104.6078532013209 -126.05616372014083 4.4262349094611855 -121.62992881067964 101743.49789538619
      3600  1444.0028985966305 -127.41615426682026 5.7862127456436445 -121.62994152117662 87759.28381589643
      3700  1042.4652753562266 -125.80712292573079 4.177225592150335 -121.62989733358046 107285.41907858715
      3800  1364.6736211628759 -127.09826929203942 5.4683352146248412 -121.62993407741457 87801.327656275229
      3900  1225.6524390204577 -126.5411673049629 4.9112683716090295 -121.62989893335387 98782.537479608683
      4000  1177.5305751865926 -126.34833537025079 4.7184409596071237 -121.62989441064367 101177.48849935555
      4100  1066.1253746159607 -125.90195469357622 4.2720331358421912 -121.62992155773402 101129.88985763013
      4200  1546.0807711704629 -127.82518617581795 6.1952453645593817 -121.62994081125856 82718.47797610081
      4300  1040.3111750050691 -125.79843520100937 4.168593973114544 -121.62984122789483 105656.277011135
      4400  1019.2557684756106 -125.71408309774628 4.0842236011825603 -121.62985949656372 102448.56871963745
      4500  1310.0914989681373 -126.87951095890452 5.2496211307165526 -121.62988982818797 91733.657459350041
      4600  1218.0153218193693 -126.51049219531035 4.8806659504283942 -121.62982624488195 96001.951763820718
      4700  1157.6915989036213 -126.26884818807571 4.6389449021264824 -121.62990328594923 98272.949475821573
      4800  1256.0002783204516 -126.66277060605768 5.0328741209680006 -121.62989648508967 94445.909144733276
      4900  1091.0387347267674 -126.00174571059694 4.3718625765933536 -121.62988313400358 102396.7868892527
      5000  1418.5085501143756 -127.31398582180807 5.684055247017243 -121.62993057479083 88341.197924012129
      5100  1065.7915948563336 -125.90056258560273 4.2706956588182399 -121.62986692678449 101331.79702096568
      5200  1085.1418620169472 -125.97805380974668 4.3482334273262992 -121.62982038242038 102597.62739003045
      5300  1096.7817093894234 -126.02472153263662 4.3948750464597675 -121.62984648617685 104010.79330975497
      5400  1487.2791401439254 -127.58970343418304 5.9596234366248533 -121.63007999755818 83131.248387181302
      5500  1415.8414531344847 -127.30336553237666 5.6733680174044006 -121.62999751497226 89367.92195602115
      5600  1098.8799201853774 -126.03317285463456 4.4032827124432599 -121.6298901421913 104697.19633010363
      5700  1348.4733651061663 -127.03339304535891 5.4034197437700913 -121.62997330158882 89634.514336764172
      5800  1165.2170626829711 -126.29899864693934 4.6690999208451238 -121.62989872609421 96408.254096596109
      5900  1214.1273389016344 -126.4949344107936 4.8650865521215723 -121.62984785867204 97483.49761491752
      6000  1144.835152476953 -126.21726943559503 4.58742829211831 -121.62984114347672 99322.495701059495
      6100  1110.4049009296343 -126.07931058836175 4.4494640535891303 -121.62984653477262 99250.800372918035
      6200  1199.785960014899 -126.43751839981437 4.8076197219751924 -121.62989867783918 97292.370953337202
      6300  1335.5058968066439 -126.98136272946675 5.3514582619570374 -121.62990446750972 90446.819391929617
      6400  1244.7324555061405 -126.61768900369702 4.9877232282328237 -121.6299657754642 93916.537586303879
      6500  1218.8294756822627 -126.51382722943796 4.8839283174658616 -121.62989891197211 97234.223435953099
      6600  1249.1150945372212 -126.63516500399456 5.0052847454886686 -121.62988025850589 96521.33972318178
      6700  1138.4524143280123 -126.19173156104566 4.5618522487008075 -121.62987931234485 99696.863635848131
      6800  1059.7363999239544 -125.8762652486364 4.2464321021943991 -121.629833146442 105720.40473746193
      6900  1373.556806990005 -127.13381739806644 5.503930713155218 -121.62988668491123 89384.962914205636
      7000  1086.3165853281514 -125.98281890108851 4.3529406193980735 -121.62987828169044 101282.00614317985
      7100  1320.4543666452605 -126.92108105676868 5.2911458098519359 -121.62993524691674 93039.897789205876
      7200  1106.0720602109591 -126.06200637377492 4.4321020813828369 -121.62990429239208 99990.719213733682
      7300  1349.8384780619842 -127.03878446169173 5.4088898394270144 -121.62989462226471 89312.516560799893
      7400  1102.7854712038645 -126.04877732108241 4.4189325072628511 -121.62984481381956 103608.38102202654
      7500  1249.0891943927768 -126.63508013814737 5.0051809619394492 -121.62989917620793 93866.553465222212
      7600  1148.6908866792601 -126.23276656300223 4.6028784677425323 -121.6298880952597 100547.27886002361
      7700  1382.7843382318929 -127.17084207530851 5.5409060259710898 -121.62993604933743 91288.03622148445
      7800  1006.0562156111205 -125.66112575274909 4.0313321415493863 -121.6297936111997 103422.61592249342
      7900  1172.5551710568093 -126.32830632407629 4.6985041943703925 -121.62980212970591 98328.917255145585
      8000  1070.200874369744 -125.91816134568438 4.2883639262049575 -121.62979741947943 102367.38722845718
      8100  1186.4950047594996 -126.3842274459079 4.7543620070666472 -121.62986543884125 95290.365899778451
      8200  1189.6160553162413 -126.39674322268527 4.7668682579396666 -121.62987496474561 98824.836821031757
      8300  1134.1408055794795 -126.17447255795796 4.5445753543682308 -121.62989720358972 97034.344170280805
      8400  1251.8400254296571 -126.64605112222915 5.0162037193190763 -121.62984740291007 95852.06403373646
      8500  1274.778191835537 -126.73799543873912 5.1081184315044794 -121.62987700723464 93387.760666764283
      8600  1186.9816784132202 -126.38624290997103 4.7563121397851233 -121.62993077018591 98396.407687390543
      8700  1257.7899742817208 -126.66988074764501 5.0400455481112472 -121.62983519953376 95875.649936779111
      8800  1136.2844540519918 -126.18298401336122 4.553165092052196 -121.62981892130902 102973.9040117878
      8900  1061.142629039821 -125.88192483118229 4.2520669529564232 -121.62985787822586 104365.08169547407
      9000  1264.6406678737014 -126.69738846780177 5.0674967191697968 -121.62989174863198 96816.470038591928
      9100  1238.1601718763409 -126.59126300294267 4.9613876638487833 -121.62987533909389 96691.128251011018
      9200  1185.6503589308352 -126.38087227384503 4.7509774567557566 -121.62989481708927 97997.313198040167
      9300  1238.3029936665423 -126.59186547759009 4.9619599599734121 -121.62990551761668 95266.532452592539
      9400  1200.9495939640206 -126.44214054243301 4.8122824782578935 -121.62985806417511 99347.778565221874
      9500  992.40705847691629 -125.60639725855171 3.9766390886102405 -121.62975816994147 105631.57974103239
      9600  1357.4100095335864 -127.06913137440179 5.439229454359646 -121.62990192004214 90661.444433095283
      9700  1258.2277421198714 -126.67170987916572 5.0417997120725531 -121.62991016709316 95309.870567228834
      9800  1165.9214255273332 -126.30178533715264 4.671922348190364 -121.62986298896227 98119.056312710294
      9900  1084.5105557392642 -125.97555523243039 4.3457037423555249 -121.62985149007487 104125.4513775087
     10000  1308.3164797546383 -126.87243089809741 5.2425085142481977 -121.62992238384921 89438.39980625773
Loop time of 10.4461 on 1 procs for 10000 steps with 32 atoms

Performance: 41.355 ns/day, 0.580 hours/ns, 957.296 timesteps/s, 30.633 katom-step/s
100.0% CPU use with 1 MPI tasks x 1 OpenMP threads

MPI task timing breakdown:
Section |  min time  |  avg time  |  max time  |%varavg| %total
---------------------------------------------------------------
Pair    | 10.397     | 10.397     | 10.397     |   0.0 | 99.53
Neigh   | 0.019119   | 0.019119   | 0.019119   |   0.0 |  0.18
Comm    | 0.011134   | 0.011134   | 0.011134   |   0.0 |  0.11
Output  | 0.0078197  | 0.0078197  | 0.0078197  |   0.0 |  0.07
Modify  | 0.0048345  | 0.0048345  | 0.0048345  |   0.0 |  0.05
Other   |            | 0.00645    |            |       |  0.06

Nlocal:             32 ave          32 max          32 min
Histogram: 1 0 0 0 0 0 0 0 0 0
Nghost:            333 ave         333 max         333 min
Histogram: 1 0 0 0 0 0 0 0 0 0
Neighs:            700 ave         700 max         700 min
Histogram: 1 0 0 0 0 0 0 0 0 0
FullNghs:         1400 ave        1400 max        1400 min
Histogram: 1 0 0 0 0 0 0 0 0 0

Total # of neighbors = 1400
Ave neighs/atom = 43.75
Neighbor list builds = 395
Dangerous builds = 0
print "YE3T_NVE_END"
YE3T_NVE_END
Total wall time: 0:00:12
