LAMMPS (22 Jul 2025 - Update 4)
OMP_NUM_THREADS environment is not set. Defaulting to 1 thread.
  using 1 OpenMP thread(s) per MPI task
# 2000-step NVT preparation plus 10000-step NVE stability gate.
units metal
atom_style atomic
boundary p p p
atom_modify map yes sort 0 0.0
newton on
lattice fcc 3.621
Lattice spacing in x,y,z = 3.621 3.621 3.621
region cell block 0 2 0 2 0 2 units lattice
create_box 1 cell
Created orthogonal box = (0 0 0) to (7.242 7.242 7.242)
  1 by 2 by 2 MPI processor grid
create_atoms 1 box
Created 32 atoms
  using lattice units in orthogonal box = (0 0 0) to (7.242 7.242 7.242)
  create_atoms CPU = 0.000 seconds
mass 1 63.545999999999999
reset_atoms id sort yes
Resetting atom IDs ...
WARNING: Communication cutoff is 0.0. No ghost atoms will be generated. Energies and forces may be wrong and atoms may get lost. (src/comm_brick.cpp:212)
displace_atoms all random 0.01 0.01 0.01 77307 units box
Displacing atoms ...
velocity all create 1086.2160000000001 85226 mom yes rot no dist gaussian
neighbor 0.3 bin
neigh_modify every 1 delay 0 check yes
pair_style hybrid/overlay pace product zbl 1.2826759996174664 1.6491548566510283
ACE version: 2025.12.4p1
Product evaluator is used
pair_coeff * * pace models/ace_127/potential.yace Cu
Loading models/ace_127/potential.yace
Total number of basis functions
	Cu: 4 (r=1) 123 (r>1)
Mapping LAMMPS atom type #1(Cu) -> ACE species type #0
pair_coeff * * zbl 29 29
timestep 0.0005
thermo 100
thermo_style custom step temp pe ke etotal press
thermo_modify format float %.17g
fix thermostat all nvt temp 1086.2160000000001 1086.2160000000001 0.05
run 2000
Neighbor list info ...
  update: every = 1 steps, delay = 0 steps, check = yes
  max neighbors/atom: 2000, page size: 100000
  master list distance cutoff = 4.9380492
  ghost atom cutoff = 4.9380492
  binsize = 2.4690246, bins = 3 3 3
  2 neighbor lists, perpetual/occasional/extra = 2 0 0
  (1) pair pace, perpetual
      attributes: full, newton on, cut 4.938049165633363
      pair build: full/bin/atomonly
      stencil: full/bin/3d
      bin: standard
  (2) pair zbl, perpetual, half/full from (1)
      attributes: half, newton on
      pair build: halffull/newton
      stencil: none
      bin: none
Per MPI rank memory allocation (min/avg/max) = 3.585 | 3.585 | 3.585 Mbytes
   Step          Temp          PotEng         KinEng         TotEng         Press     
         0  1086.2160000000003 -131.16001502306983 4.3525375675009217 -126.80747745556891 31977.81613379265
       100  274.14394429602714 -127.52649746222529 1.0985124657078682 -126.42798499651742 85921.464221654052
       200  765.00276114469636 -128.40760802094803 3.0654154027598786 -125.34219261818815 74697.622439472834
       300  1000.5120007646969 -127.66523227901472 4.0091161150856305 -123.65611616392908 96597.403057993652
       400  978.966178042823 -126.32899241283616 3.9227806138412453 -122.40621179899492 103818.09628305171
       500  1162.5677247202284 -125.81917831262371 4.6584838527593613 -121.16069445986435 115185.0050601665
       600  1469.0419976713058 -126.91091170837245 5.8865460305325632 -121.0243656778399 106262.43955385611
       700  807.75776421024091 -125.84291127953234 3.2367374575274384 -122.60617382200491 113921.75529117539
       800  1271.7930868068486 -127.94120123753106 5.0961569231301764 -122.84504431440088 90312.165752134941
       900  910.3824843298114 -127.25074963977585 3.6479613298278815 -123.60278830994797 97029.167642826578
      1000  894.05889855276075 -127.04125660512649 3.5825516688295749 -123.45870493629691 94535.54433669908
      1100  1271.0495054888095 -126.91613629601174 5.093177344831517 -121.82295895118023 104483.66700988052
      1200  860.31208128737239 -125.1128862130744 3.4473259955461844 -121.66556021752822 118754.41572228343
      1300  1541.2875638939531 -127.66413974550905 6.1760386738645039 -121.48810107164454 90743.469303284655
      1400  917.51648020560219 -126.680944363107 3.6765477114092393 -123.00439665169776 102915.90310740206
      1500  1101.3069964200745 -127.49558548306469 4.4130081634499732 -123.08257731961471 89746.752871675824
      1600  1258.3547524396213 -127.83520167985634 5.0423086506153219 -122.79289302924101 89268.565961369721
      1700  1068.3123325807678 -126.80364715498969 4.2807964174550266 -122.52285073753467 101294.47518481118
      1800  1270.9108829329432 -126.41767691479464 5.0926218753096988 -121.32505503948494 109834.92441423815
      1900  1338.9073967973816 -126.15400324336525 5.3650882917996654 -120.78891495156559 111082.79223746908
      2000  1075.3403248125549 -126.65883181768199 4.3089580355981569 -122.34987378208383 106159.94567966025
Loop time of 0.701611 on 4 procs for 2000 steps with 32 atoms

Performance: 123.145 ns/day, 0.195 hours/ns, 2850.581 timesteps/s, 91.219 katom-step/s
86.3% CPU use with 4 MPI tasks x 1 OpenMP threads

MPI task timing breakdown:
Section |  min time  |  avg time  |  max time  |%varavg| %total
---------------------------------------------------------------
Pair    | 0.51819    | 0.53935    | 0.55249    |   1.9 | 76.87
Neigh   | 0.0010578  | 0.001085   | 0.0011463  |   0.1 |  0.15
Comm    | 0.14317    | 0.15582    | 0.17708    |   3.5 | 22.21
Output  | 0.00022091 | 0.00023657 | 0.0002795  |   0.0 |  0.03
Modify  | 0.0028866  | 0.0033533  | 0.0036831  |   0.6 |  0.48
Other   |            | 0.001764   |            |       |  0.25

Nlocal:              8 ave          10 max           7 min
Histogram: 2 0 0 1 0 0 0 0 0 1
Nghost:            213 ave         214 max         211 min
Histogram: 1 0 0 0 0 0 1 0 0 2
Neighs:          175.5 ave         213 max         146 min
Histogram: 1 1 0 0 0 1 0 0 0 1
FullNghs:          351 ave         440 max         303 min
Histogram: 2 0 0 1 0 0 0 0 0 1

Total # of neighbors = 1404
Ave neighs/atom = 43.875
Neighbor list builds = 75
Dangerous builds = 0
unfix thermostat
reset_timestep 0
fix integrate all nve
dump trajectory all custom 100 trajectory.ace_127.lammpstrj id type x y z vx vy vz fx fy fz
dump_modify trajectory sort id
print "YE3T_NVE_BEGIN"
YE3T_NVE_BEGIN
run 10000
Per MPI rank memory allocation (min/avg/max) = 3.601 | 3.601 | 3.601 Mbytes
   Step          Temp          PotEng         KinEng         TotEng         Press     
         0  1075.3403248125549 -126.65883181768199 4.3089580355981569 -122.34987378208383 106159.94567966025
       100  1200.4977727918244 -127.16034928789212 4.8104720016806972 -122.34987728621142 97893.196453579585
       200  1029.2195813620126 -126.47407612989069 4.124149242034485 -122.3499268878562 102875.9486613717
       300  1263.2613909084498 -127.41186512162908 5.0619698674135654 -122.34989525421551 91376.780153554631
       400  1135.3908895816646 -126.89947292781872 4.5495845215891544 -122.34988840622957 94211.61851438896
       500  1030.9865827467868 -126.48112120681822 4.1312297305460293 -122.34989147627219 97946.624566763392
       600  1285.8729377951859 -127.50245168723995 5.1525757941204331 -122.34987589311952 93840.442153523545
       700  768.1872357890453 -125.42796118623571 3.0781757980424773 -122.34978538819323 109171.27425168104
       800  1210.2085447965924 -127.19926876801624 4.8493836914000426 -122.3498850766162 91059.439707804122
       900  1223.6964060711055 -127.25330292847019 4.9034304214266298 -122.34987250704356 96699.50112307127
      1000  999.52072448669594 -126.35502037831311 4.005144007107317 -122.3498763712058 98642.125499152069
      1100  1159.8132809917556 -126.99733824348966 4.6474466190915225 -122.34989162439814 94157.501048834805
      1200  1317.0258247586059 -127.62733668437762 5.2774074213883022 -122.34992926298932 93694.540686704568
      1300  904.09477155847583 -125.97254050713114 3.6227660592271049 -122.34977444790404 113560.82654931842
      1400  1095.885203270599 -126.74112413782782 4.3912826886214757 -122.34984144920635 95290.604560972541
      1500  1162.2178134700578 -127.00694433440546 4.6570817358124019 -122.34986259859306 95310.584542546858
      1600  1274.2772518862143 -127.45601187762705 5.1061111328194215 -122.34990074480763 96494.882206703231
      1700  986.05734080109278 -126.30103680238378 3.9511953603581742 -122.34984144202561 105485.47581717135
      1800  1340.6853871432095 -127.72208878312387 5.3722128137868852 -122.34987596933698 88982.566999821676
      1900  860.18115844279998 -125.79647823219732 3.4468013792641137 -122.3496768529332 114045.96734398113
      2000  1050.5294179993243 -126.55927823023596 4.209539131818107 -122.34973909841786 98075.554898970295
      2100  1140.3704045243069 -126.91932496468432 4.5695377591181376 -122.34978720556619 99508.947311391836
      2200  1279.520842494929 -127.47695846302412 5.1271225385739179 -122.3498359244502 90082.563150814851
      2300  814.8311404402865 -125.61485195439128 3.2650809322786309 -122.34977102211265 104872.21189502266
      2400  1216.4849922637175 -127.22435679770466 4.8745338212002922 -122.34982297650437 93797.186681511346
      2500  1181.1901308942431 -127.08295939576826 4.7331050353507251 -122.34985436041754 99733.380570728172
      2600  1133.906751654011 -126.89353048847468 4.543637485193571 -122.34989300328111 97362.923568913786
      2700  1379.3292245469192 -127.87691885772153 5.5270611625978434 -122.34985769512369 92448.939326884152
      2800  884.54707149366357 -125.89417978252639 3.5444371643384862 -122.3497426181879 107518.0128367944
      2900  1004.7196440619273 -126.37574263809665 4.0259764131495865 -122.34976622494706 97701.588299552459
      3000  1271.3304462708029 -127.44410681220864 5.0943030926642399 -122.34980371954441 97564.290962222469
      3100  986.46137254232303 -126.30260811905426 3.952814341603311 -122.34979377745094 104264.02895870624
      3200  1214.2916510745245 -127.21562131610514 4.8657449615956558 -122.34987635450949 95224.581911531146
      3300  1252.2842345058696 -127.36782342403232 5.0179836937367241 -122.3498397302956 93511.894242181239
      3400  838.6406977400967 -125.71020919358136 3.3604873639763686 -122.34972182960499 108031.11376319763
      3500  1112.4692978739117 -126.80753442518039 4.457736225288131 -122.34979819989226 98039.470628174618
      3600  1363.0436098583732 -127.81172900999448 5.4618036542001196 -122.34992535579435 93082.942046507669
      3700  1039.3504128504651 -126.51461231094572 4.1647441371966911 -122.34986817374903 100983.77457970235
      3800  1182.4916411912391 -127.08813972588099 4.7383202710516938 -122.3498194548293 97476.894703733211
      3900  1213.1722180655645 -127.21107588289198 4.8612593213309214 -122.34981656156106 93494.567670250544
      4000  926.50115146309292 -126.06229458250441 3.7125498686043774 -122.34974471390002 99468.054229969377
      4100  1027.0764232299341 -126.4653092604631 4.1155614691762628 -122.34974779128684 102398.52112711521
      4200  1157.0264745427651 -126.98605070453293 4.636279705915336 -122.34977099861759 97648.668950665189
      4300  1018.3250007345605 -126.43021721216755 4.0804939548143064 -122.34972325735325 99696.160372828293
      4400  1185.2026961107777 -127.09901526715819 4.7491836429637724 -122.34983162419442 95489.191040354519
      4500  1191.4620468859184 -127.1241168578491 4.7742652652165898 -122.34985159263252 94772.44726788871
      4600  1087.4296135826949 -126.70718880468223 4.3574005953987864 -122.34978820928345 102092.38847595765
      4700  1148.2906243754574 -126.95104372768893 4.6012745908762769 -122.34976913681265 98750.002489391278
      4800  966.33921276832541 -126.22190812525288 3.8721835496102077 -122.34972457564267 102132.19198848157
      4900  1200.4015871668769 -127.15990775510809 4.8100865796780408 -122.34982117543005 95764.245554140638
      5000  1206.4176289455202 -127.18405558462597 4.8341932470896785 -122.34986233753629 95272.810079084506
      5100  1195.8562739699171 -127.1418001384743 4.7918732165478479 -122.34992692192645 91728.18710111086
      5200  1270.1286273029002 -127.43939420680753 5.0894873265485394 -122.349906880259 95272.749532724076
      5300  1212.1117451837647 -127.20686270695259 4.8570099380983516 -122.34985276885423 96824.761863116786
      5400  978.18396728496816 -126.26946819703869 3.919646244885838 -122.34982195215285 105450.62381613607
      5500  1324.1672648884182 -127.65589377093009 5.3060236325756414 -122.34987013835445 89091.263450258717
      5600  1030.196639763996 -126.47787404738455 4.1280643780666137 -122.34980966931793 104291.121312467
      5700  1257.9583552550339 -127.39064288344798 5.0407202615310434 -122.34992262191693 89360.97535378921
      5800  1142.9351155878205 -126.92971379583972 4.5798147217606768 -122.34989907407905 98918.696920441493
      5900  1069.4624437636935 -126.63519993216431 4.2854049871414306 -122.34979494502288 100884.60588975664
      6000  1029.0523375547534 -126.47327798068741 4.1234790853124084 -122.349798895375 100496.67167139908
      6100  1243.1483618299619 -127.33123861584065 4.9813756627062542 -122.34986295313439 94850.915946055247
      6200  1185.6236940508011 -127.10077387789784 4.7508706088617085 -122.34990326903613 98399.582485428895
      6300  1025.5746957209296 -126.45944047047699 4.1095439501937658 -122.34989652028322 98216.349436619203
      6400  1244.5096705300464 -127.33673673734887 4.9868305144650975 -122.34990622288377 96769.363666960184
      6500  1154.4235978211611 -126.97570653244763 4.6258498110193349 -122.3498567214283 96718.371325341883
      6600  1030.4040588257924 -126.47874475207306 4.1288955196247246 -122.34984923244834 97278.245776864205
      6700  1104.5901288694963 -126.77601580859637 4.4261638869204338 -122.34985192167593 98563.172859357976
      6800  1273.4033416962868 -127.45246373644825 5.1026093183255448 -122.3498544181227 94630.223712147446
      6900  1027.039620577993 -126.46528652136328 4.1154139985763472 -122.34987252278694 95696.767588028408
      7000  1046.2404750957128 -126.54221346549519 4.1923530609879629 -122.34986040450723 100642.13564738449
      7100  1264.08746854899 -127.41516447886823 5.0652800137970875 -122.34988446507114 96069.612310662778
      7200  1125.6678425681766 -126.86052505608609 4.5106236451181907 -122.3499014109679 94272.524644578138
      7300  1029.5889424784527 -126.47544901187354 4.1256292958500058 -122.34981971602353 101964.02292138121
      7400  1271.6910807560928 -127.44561493075564 5.095748178305918 -122.34986675244971 95919.369501003646
      7500  946.64401767198274 -126.14310018321767 3.7932636326175548 -122.34983655060012 98157.550325982345
      7600  1313.7856049681343 -127.61431495842518 5.2644236517099072 -122.34989130671528 91596.74525516291
      7700  1086.4793874801489 -126.70342012539277 4.3535929781210525 -122.34982714727171 100510.17955874746
      7800  1181.520904953263 -127.08433384726411 4.7344304683384903 -122.34990337892562 90354.032344841282
      7900  1218.6661400862179 -127.23313559816772 4.8832738211981805 -122.34986177696953 93008.411113175462
      8000  1012.2604274362458 -126.40598826352851 4.0561928184733045 -122.34979544505521 99470.885085812915
      8100  1109.5838407605838 -126.79599949923713 4.4461740125374698 -122.34982548669966 94718.185306878077
      8200  1280.3765318547516 -127.48045217794738 5.1305513410264121 -122.34990083692097 90847.209117043734
      8300  947.95710405067939 -126.14830954844429 3.7985252544244985 -122.34978429401978 109976.51272761439
      8400  1132.3397516909342 -126.88712590788397 4.5373584152778594 -122.34976749260611 101056.60606850573
      8500  1155.8734610086442 -126.98149647782049 4.6316595063205055 -122.34983697149998 99026.319778311081
      8600  1033.8713362116348 -126.49261661239287 4.1427891237318502 -122.34982748866102 104687.57735460503
      8700  1101.3463339155146 -126.76295508065085 4.4131657913312736 -122.34978928931957 95493.150990906201
      8800  1092.3467125486993 -126.72684819453856 4.3771037280838643 -122.34974446645469 104834.90050578497
      8900  929.2838032674523 -126.0734216895586 3.7237001338515734 -122.34972155570702 107756.42257463136
      9000  1159.7474850018343 -126.99700265031424 4.647182970316396 -122.34981967999785 95513.717381859635
      9100  1153.7156953197464 -126.97285113453165 4.6230132000399937 -122.34983793449166 98358.718005309667
      9200  1008.5063075167342 -126.39095018131444 4.0411498178338574 -122.34980036348058 105093.83956757029
      9300  1207.0734113327285 -127.18670731290325 4.8368210094099071 -122.34988630349335 93358.406677681181
      9400  1137.1321163440055 -126.90638589433799 4.5565617295262744 -122.34982416481171 96370.233937355006
      9500  1295.1158380021147 -127.53948797169981 5.1896126913704466 -122.34987528032937 89111.674173985622
      9600  970.74134969330908 -126.23962554469117 3.8898231961844383 -122.34980234850673 102214.8687509181
      9700  1155.0501267944744 -126.97812516693391 4.6283603530233872 -122.34976481391053 99157.181188219445
      9800  1003.6001291886972 -126.37120808433129 4.0214904448494426 -122.34971763948184 98542.700749114476
      9900  1160.6743754731067 -127.00074248978666 4.6508970802145848 -122.34984540957207 98789.734752838936
     10000  1170.7953946040527 -127.04129374049364 4.6914526566274146 -122.34984108386622 96634.072590909593
Loop time of 3.64667 on 4 procs for 10000 steps with 32 atoms

Performance: 118.464 ns/day, 0.203 hours/ns, 2742.226 timesteps/s, 87.751 katom-step/s
84.9% CPU use with 4 MPI tasks x 1 OpenMP threads

MPI task timing breakdown:
Section |  min time  |  avg time  |  max time  |%varavg| %total
---------------------------------------------------------------
Pair    | 2.7002     | 2.7375     | 2.7961     |   2.4 | 75.07
Neigh   | 0.0053425  | 0.0053828  | 0.0054469  |   0.1 |  0.15
Comm    | 0.81195    | 0.87205    | 0.91147    |   4.4 | 23.91
Output  | 0.0074169  | 0.0083291  | 0.010413   |   1.3 |  0.23
Modify  | 0.0020564  | 0.0021028  | 0.0021646  |   0.1 |  0.06
Other   |            | 0.02131    |            |       |  0.58

Nlocal:              8 ave           9 max           7 min
Histogram: 1 0 0 0 0 2 0 0 0 1
Nghost:            213 ave         214 max         212 min
Histogram: 1 0 0 0 0 2 0 0 0 1
Neighs:         175.25 ave         192 max         162 min
Histogram: 1 1 0 0 0 0 1 0 0 1
FullNghs:        350.5 ave         394 max         311 min
Histogram: 1 0 0 0 2 0 0 0 0 1

Total # of neighbors = 1402
Ave neighs/atom = 43.8125
Neighbor list builds = 381
Dangerous builds = 0
print "YE3T_NVE_END"
YE3T_NVE_END
Total wall time: 0:00:04
