LAMMPS (22 Jul 2025 - Update 4)
OMP_NUM_THREADS environment is not set. Defaulting to 1 thread.
  using 1 OpenMP thread(s) per MPI task
# 2000-step NVT preparation plus 10000-step NVE stability gate.
units metal
atom_style atomic
boundary p p p
atom_modify map yes sort 0 0.0
newton on
lattice fcc 3.621
Lattice spacing in x,y,z = 3.621 3.621 3.621
region cell block 0 2 0 2 0 2 units lattice
create_box 1 cell
Created orthogonal box = (0 0 0) to (7.242 7.242 7.242)
  1 by 1 by 1 MPI processor grid
create_atoms 1 box
Created 32 atoms
  using lattice units in orthogonal box = (0 0 0) to (7.242 7.242 7.242)
  create_atoms CPU = 0.000 seconds
mass 1 63.545999999999999
reset_atoms id sort yes
Resetting atom IDs ...
WARNING: Communication cutoff is 0.0. No ghost atoms will be generated. Energies and forces may be wrong and atoms may get lost. (src/comm_brick.cpp:212)
displace_atoms all random 0.01 0.01 0.01 77307 units box
Displacing atoms ...
velocity all create 1086.2160000000001 85226 mom yes rot no dist gaussian
neighbor 0.3 bin
neigh_modify every 1 delay 0 check yes
pair_style hybrid/overlay pace product zbl 1.2826759996174664 1.6491548566510283
ACE version: 2025.12.4p1
Product evaluator is used
pair_coeff * * pace models/ace_127/potential.yace Cu
Loading models/ace_127/potential.yace
Total number of basis functions
	Cu: 4 (r=1) 123 (r>1)
Mapping LAMMPS atom type #1(Cu) -> ACE species type #0
pair_coeff * * zbl 29 29
timestep 0.0005
thermo 100
thermo_style custom step temp pe ke etotal press
thermo_modify format float %.17g
fix thermostat all nvt temp 1086.2160000000001 1086.2160000000001 0.05
run 2000
Neighbor list info ...
  update: every = 1 steps, delay = 0 steps, check = yes
  max neighbors/atom: 2000, page size: 100000
  master list distance cutoff = 4.9380492
  ghost atom cutoff = 4.9380492
  binsize = 2.4690246, bins = 3 3 3
  2 neighbor lists, perpetual/occasional/extra = 2 0 0
  (1) pair pace, perpetual
      attributes: full, newton on, cut 4.938049165633363
      pair build: full/bin/atomonly
      stencil: full/bin/3d
      bin: standard
  (2) pair zbl, perpetual, half/full from (1)
      attributes: half, newton on
      pair build: halffull/newton
      stencil: none
      bin: none
Per MPI rank memory allocation (min/avg/max) = 3.571 | 3.571 | 3.571 Mbytes
   Step          Temp          PotEng         KinEng         TotEng         Press     
         0  1086.2159999999999 -131.16001502306887 4.3525375675009199 -126.80747745556795 31977.816133782046
       100  274.14394429602652 -127.526497462225 1.0985124657078658 -126.42798499651713 85921.464221614398
       200  765.00276114471217 -128.40760802095051 3.0654154027599421 -125.34219261819057 74697.622439431012
       300  1000.5120007646763 -127.66523227901435 4.0091161150855479 -123.6561161639288 96597.40305800864
       400  978.96617804280982 -126.32899241283705 3.9227806138411925 -122.40621179899586 103818.09628307669
       500  1162.5677247202671 -125.81917831262368 4.6584838527595167 -121.16069445986416 115185.00506016922
       600  1469.0419976713124 -126.91091170837237 5.886546030532589 -121.02436567783978 106262.4395538676
       700  807.75776421021203 -125.84291127953365 3.2367374575273229 -122.60617382200633 113921.75529118521
       800  1271.7930868068991 -127.94120123753174 5.0961569231303789 -122.84504431440136 90312.165752013228
       900  910.38248432977673 -127.25074963977525 3.6479613298277425 -123.60278830994751 97029.167642847067
      1000  894.05889855273369 -127.04125660512828 3.5825516688294665 -123.45870493629882 94535.544336628969
      1100  1271.0495054887749 -126.91613629601081 5.0931773448313784 -121.82295895117943 104483.66700997679
      1200  860.31208128734397 -125.11288621307378 3.4473259955460702 -121.66556021752771 118754.41572233653
      1300  1541.2875638939793 -127.66413974551222 6.1760386738646087 -121.48810107164761 90743.469303334277
      1400  917.5164802055516 -126.68094436310821 3.6765477114090364 -123.00439665169917 102915.90310745551
      1500  1101.3069964200415 -127.49558548306237 4.4130081634498408 -123.08257731961253 89746.752871602672
      1600  1258.3547524396072 -127.83520167985566 5.042308650615265 -122.79289302924039 89268.565961454413
      1700  1068.3123325808187 -126.80364715498847 4.2807964174552309 -122.52285073753323 101294.47518476688
      1800  1270.9108829329662 -126.41767691479255 5.0926218753097912 -121.32505503948276 109834.92441423843
      1900  1338.9073967973727 -126.15400324336238 5.3650882917996299 -120.78891495156276 111082.79223748525
      2000  1075.3403248125551 -126.65883181767897 4.3089580355981578 -122.34987378208082 106159.94567962631
Loop time of 2.0027 on 1 procs for 2000 steps with 32 atoms

Performance: 43.142 ns/day, 0.556 hours/ns, 998.653 timesteps/s, 31.957 katom-step/s
99.7% CPU use with 1 MPI tasks x 1 OpenMP threads

MPI task timing breakdown:
Section |  min time  |  avg time  |  max time  |%varavg| %total
---------------------------------------------------------------
Pair    | 1.9941     | 1.9941     | 1.9941     |   0.0 | 99.57
Neigh   | 0.0034908  | 0.0034908  | 0.0034908  |   0.0 |  0.17
Comm    | 0.0020238  | 0.0020238  | 0.0020238  |   0.0 |  0.10
Output  | 0.00031883 | 0.00031883 | 0.00031883 |   0.0 |  0.02
Modify  | 0.0019906  | 0.0019906  | 0.0019906  |   0.0 |  0.10
Other   |            | 0.0007594  |            |       |  0.04

Nlocal:             32 ave          32 max          32 min
Histogram: 1 0 0 0 0 0 0 0 0 0
Nghost:            333 ave         333 max         333 min
Histogram: 1 0 0 0 0 0 0 0 0 0
Neighs:            702 ave         702 max         702 min
Histogram: 1 0 0 0 0 0 0 0 0 0
FullNghs:         1404 ave        1404 max        1404 min
Histogram: 1 0 0 0 0 0 0 0 0 0

Total # of neighbors = 1404
Ave neighs/atom = 43.875
Neighbor list builds = 75
Dangerous builds = 0
unfix thermostat
reset_timestep 0
fix integrate all nve
dump trajectory all custom 100 trajectory.ace_127.lammpstrj id type x y z vx vy vz fx fy fz
dump_modify trajectory sort id
print "YE3T_NVE_BEGIN"
YE3T_NVE_BEGIN
run 10000
Per MPI rank memory allocation (min/avg/max) = 3.571 | 3.571 | 3.571 Mbytes
   Step          Temp          PotEng         KinEng         TotEng         Press     
         0  1075.3403248125551 -126.65883181767897 4.3089580355981578 -122.34987378208082 106159.94567962631
       100  1200.4977727918524 -127.16034928789043 4.8104720016808091 -122.34987728620962 97893.19645357033
       200  1029.219581361999 -126.47407612989286 4.1241492420344299 -122.34992688785843 102875.94866142242
       300  1263.2613909084978 -127.41186512162922 5.0619698674137581 -122.34989525421545 91376.780153550368
       400  1135.390889581691 -126.89947292781839 4.5495845215892601 -122.34988840622913 94211.618514403919
       500  1030.9865827468429 -126.48112120681748 4.131229730546254 -122.34989147627122 97946.624566739352
       600  1285.8729377951611 -127.50245168724055 5.1525757941203345 -122.34987589312021 93840.442153457014
       700  768.18723578900904 -125.42796118623509 3.0781757980423317 -122.34978538819276 109171.27425169961
       800  1210.2085447966128 -127.19926876801594 4.8493836914001252 -122.34988507661582 91059.439707828162
       900  1223.6964060710236 -127.25330292847312 4.903430421426302 -122.34987250704681 96699.501122987771
      1000  999.52072448689739 -126.35502037831344 4.0051440071081243 -122.34987637120531 98642.125499134199
      1100  1159.8132809919657 -126.997338243493 4.6474466190923645 -122.34989162440064 94157.501048801918
      1200  1317.0258247590004 -127.62733668438106 5.2774074213898832 -122.34992926299118 93694.540686719338
      1300  904.09477155825346 -125.97254050713003 3.6227660592262136 -122.34977444790383 113560.82654924426
      1400  1095.8852032706181 -126.74112413782674 4.3912826886215521 -122.34984144920519 95290.60456095227
      1500  1162.2178134703427 -127.00694433440756 4.6570817358135432 -122.34986259859402 95310.58454259405
      1600  1274.2772518861968 -127.45601187762527 5.1061111328193514 -122.34990074480592 96494.882206767026
      1700  986.05734080134232 -126.30103680238388 3.9511953603591743 -122.3498414420247 105485.47581713441
      1800  1340.6853871430594 -127.72208878312526 5.3722128137862839 -122.34987596933897 88982.566999766568
      1900  860.18115844286149 -125.79647823219852 3.4468013792643601 -122.34967685293417 114045.96734390232
      2000  1050.5294179991561 -126.55927823023544 4.2095391318174329 -122.349739098418 98075.554899106413
      2100  1140.3704045245395 -126.91932496468712 4.5695377591190702 -122.34978720556805 99508.947311455806
      2200  1279.5208424947673 -127.47695846302443 5.1271225385732695 -122.34983592445116 90082.563150847622
      2300  814.83114044001763 -125.61485195438819 3.2650809322775536 -122.34977102211063 104872.21189503846
      2400  1216.4849922646258 -127.22435679770683 4.874533821203932 -122.34982297650291 93797.186681421677
      2500  1181.1901308936986 -127.0829593957672 4.7331050353485429 -122.34985436041866 99733.380570776149
      2600  1133.9067516548405 -126.89353048847821 4.5436374851968946 -122.34989300328131 97362.923568912069
      2700  1379.3292245466291 -127.87691885771861 5.5270611625966808 -122.34985769512193 92448.939326879175
      2800  884.5470714945692 -125.89417978252955 3.5444371643421153 -122.34974261818743 107518.0128368099
      2900  1004.7196440626825 -126.37574263809927 4.0259764131526135 -122.34976622494665 97701.588299579336
      3000  1271.3304462714757 -127.44410681221262 5.0943030926669364 -122.34980371954569 97564.290962130966
      3100  986.46137254133873 -126.30260811904986 3.9528143415993666 -122.3497937774505 104264.02895866882
      3200  1214.2916510743039 -127.21562131610148 4.8657449615947721 -122.3498763545067 95224.581911618239
      3300  1252.2842345061536 -127.36782342403215 5.0179836937378628 -122.34983973029429 93511.894242137525
      3400  838.64069774044992 -125.71020919358244 3.3604873639777839 -122.34972182960466 108031.11376307752
      3500  1112.469297872989 -126.80753442517928 4.4577362252844344 -122.34979819989485 98039.470628179421
      3600  1363.0436098564523 -127.81172900998774 5.4618036541924226 -122.34992535579532 93082.942046583805
      3700  1039.3504128512707 -126.51461231095062 4.1647441371999188 -122.34986817375071 100983.77457968726
      3800  1182.4916411890993 -127.08813972587205 4.7383202710431194 -122.34981945482893 97476.89470376815
      3900  1213.1722180661116 -127.21107588289406 4.8612593213331134 -122.34981656156096 93494.567670318531
      4000  926.50115146561848 -126.06229458251414 3.7125498686144973 -122.34974471389964 99468.054229881323
      4100  1027.0764232266017 -126.4653092604517 4.1155614691629099 -122.34974779128879 102398.52112713727
      4200  1157.02647454315 -126.98605070453505 4.6362797059168788 -122.34977099861817 97648.668950678752
      4300  1018.3250007351859 -126.4302172121735 4.0804939548168129 -122.34972325735669 99696.160372817263
      4400  1185.2026961074239 -127.09901526714533 4.7491836429503334 -122.34983162419501 95489.191040504375
      4500  1191.4620468808389 -127.12411685783033 4.7742652651962354 -122.3498515926341 94772.447268060278
      4600  1087.4296135877989 -126.70718880469848 4.3574005954192394 -122.34978820927924 102092.38847573496
      4700  1148.290624378538 -126.95104372770392 4.6012745908886217 -122.3497691368153 98750.0024892519
      4800  966.33921276679916 -126.22190812525039 3.8721835496040922 -122.34972457564631 102132.19198854956
      4900  1200.4015871699498 -127.15990775512371 4.8100865796903545 -122.34982117543336 95764.245554222929
      5000  1206.4176289469087 -127.18405558463053 4.8341932470952429 -122.34986233753528 95272.810078914234
      5100  1195.8562739657743 -127.14180013845254 4.7918732165312479 -122.34992692192129 91728.187101023315
      5200  1270.128627300787 -127.43939420679828 5.0894873265400715 -122.34990688025822 95272.749532681875
      5300  1212.1117451813891 -127.20686270693966 4.8570099380888321 -122.34985276885082 96824.761863176725
      5400  978.18396728215941 -126.26946819703033 3.919646244874583 -122.34982195215575 105450.62381608051
      5500  1324.1672648873507 -127.65589377092914 5.3060236325713639 -122.34987013835777 89091.26345007187
      5600  1030.1966397678641 -126.47787404740581 4.1280643780821134 -122.34980966932369 104291.12131225225
      5700  1257.9583552408399 -127.39064288338894 5.0407202614741671 -122.34992262191477 89360.975353940565
      5800  1142.9351155943034 -126.92971379586436 4.5798147217866543 -122.34989907407771 98918.696920152521
      5900  1069.4624437630516 -126.63519993216288 4.2854049871388584 -122.34979494502402 100884.60588950833
      6000  1029.0523375592784 -126.4732779807041 4.1234790853305396 -122.34979889537355 100496.67167080571
      6100  1243.1483618266593 -127.33123861582683 4.9813756626930203 -122.34986295313381 94850.915945879096
      6200  1185.6236940589056 -127.10077387793534 4.7508706088941839 -122.34990326904115 98399.582484794024
      6300  1025.5746957250244 -126.45944047049014 4.109543950210174 -122.34989652027997 98216.349436064294
      6400  1244.5096705312835 -127.33673673735703 4.9868305144700544 -122.34990622288697 96769.363666820282
      6500  1154.4235978114543 -126.97570653241416 4.6258498109804389 -122.34985672143372 96718.371325701199
      6600  1030.4040588272494 -126.47874475207634 4.1288955196305626 -122.34984923244578 97278.245776598516
      6700  1104.5901288721582 -126.77601580860716 4.4261638869311 -122.34985192167605 98563.172858951104
      6800  1273.4033416802113 -127.4524637363883 5.1026093182611287 -122.34985441812717 94630.223712641236
      6900  1027.0396205958182 -126.46528652143837 4.1154139986477745 -122.3498725227906 95696.767587476861
      7000  1046.2404750680068 -126.54221346538218 4.1923530608769433 -122.34986040450524 100642.13564863957
      7100  1264.0874685844985 -127.41516447901614 5.0652800139393728 -122.34988446507677 96069.612308125012
      7200  1125.667842565947 -126.8605250560725 4.5106236451092565 -122.34990141096324 94272.524644410485
      7300  1029.5889424565892 -126.47544901178794 4.1256292957623968 -122.34981971602555 101964.0229226411
      7400  1271.6910807681343 -127.44561493080353 5.0957481783541692 -122.34986675244936 95919.369500663233
      7500  946.64401768180323 -126.14310018325673 3.7932636326569065 -122.34983655059983 98157.550324630778
      7600  1313.7856049743884 -127.61431495844892 5.2644236517349681 -122.34989130671394 91596.745255120783
      7700  1086.4793874510972 -126.70342012527898 4.3535929780046407 -122.34982714727434 100510.17955957129
      7800  1181.5209049542063 -127.08433384726835 4.7344304683422704 -122.34990337892609 90354.032344003368
      7900  1218.6661401122867 -127.23313559826809 4.8832738213026401 -122.34986177696545 93008.411112590009
      8000  1012.2604274074403 -126.40598826340845 4.0561928183578795 -122.34979544505056 99470.885086127833
      8100  1109.583840750947 -126.7959994991959 4.4461740124988545 -122.34982548669704 94718.185306420448
      8200  1280.3765318737708 -127.48045217802 5.1305513411026231 -122.34990083691739 90847.209116200975
      8300  947.95710404344663 -126.14830954841523 3.7985252543955164 -122.34978429401971 109976.51272954901
      8400  1132.3397516314799 -126.88712590764374 4.5373584150396216 -122.34976749260412 101056.60607186923
      8500  1155.8734609937294 -126.9814964777582 4.6316595062607409 -122.34983697149745 99026.319780633465
      8600  1033.871336186681 -126.49261661229437 4.142789123631859 -122.34982748866251 104687.57735687334
      8700  1101.3463339702164 -126.76295508086807 4.4131657915504672 -122.3497892893176 95493.15098855496
      8800  1092.3467125315358 -126.72684819446599 4.3771037280150891 -122.3497444664509 104834.90050753162
      8900  929.28380322093687 -126.07342168936316 3.7237001336651834 -122.34972155569797 107756.42257793981
      9000  1159.7474850301498 -126.99700265042813 4.6471829704298582 -122.34981967999828 95513.717380868926
      9100  1153.7156953486483 -126.97285113464861 4.623013200155806 -122.3498379344928 98358.718007107251
      9200  1008.5063075452953 -126.39095018141983 4.0411498179483036 -122.34980036347152 105093.83956806375
      9300  1207.0734114321497 -127.18670731329803 4.8368210098082942 -122.34988630348974 93358.406674713289
      9400  1137.132116372539 -126.90638589445363 4.5565617296406096 -122.34982416481303 96370.233936100922
      9500  1295.115837975462 -127.53948797158782 5.1896126912636467 -122.34987528032417 89111.674176339206
      9600  970.74134962576727 -126.23962554441411 3.8898231959137939 -122.34980234850032 102214.86875646544
      9700  1155.0501268963415 -126.97812516733589 4.6283603534315754 -122.34976481390432 99157.181187976239
      9800  1003.6001292837211 -126.37120808469753 4.0214904452302092 -122.34971763946731 98542.70074869832
      9900  1160.6743754734955 -127.0007424897793 4.6508970802161436 -122.34984540956316 98789.734749168652
     10000  1170.7953945524177 -127.04129374027966 4.6914526564205099 -122.34984108385915 96634.072591960648
Loop time of 10.0939 on 1 procs for 10000 steps with 32 atoms

Performance: 42.798 ns/day, 0.561 hours/ns, 990.693 timesteps/s, 31.702 katom-step/s
100.0% CPU use with 1 MPI tasks x 1 OpenMP threads

MPI task timing breakdown:
Section |  min time  |  avg time  |  max time  |%varavg| %total
---------------------------------------------------------------
Pair    | 10.048     | 10.048     | 10.048     |   0.0 | 99.54
Neigh   | 0.018041   | 0.018041   | 0.018041   |   0.0 |  0.18
Comm    | 0.010492   | 0.010492   | 0.010492   |   0.0 |  0.10
Output  | 0.0080259  | 0.0080259  | 0.0080259  |   0.0 |  0.08
Modify  | 0.004406   | 0.004406   | 0.004406   |   0.0 |  0.04
Other   |            | 0.00528    |            |       |  0.05

Nlocal:             32 ave          32 max          32 min
Histogram: 1 0 0 0 0 0 0 0 0 0
Nghost:            333 ave         333 max         333 min
Histogram: 1 0 0 0 0 0 0 0 0 0
Neighs:            701 ave         701 max         701 min
Histogram: 1 0 0 0 0 0 0 0 0 0
FullNghs:         1402 ave        1402 max        1402 min
Histogram: 1 0 0 0 0 0 0 0 0 0

Total # of neighbors = 1402
Ave neighs/atom = 43.8125
Neighbor list builds = 381
Dangerous builds = 0
print "YE3T_NVE_END"
YE3T_NVE_END
Total wall time: 0:00:12
