LAMMPS (22 Jul 2025 - Update 4)
OMP_NUM_THREADS environment is not set. Defaulting to 1 thread.
  using 1 OpenMP thread(s) per MPI task
# 2000-step NVT preparation plus 10000-step NVE stability gate.
units metal
atom_style atomic
boundary p p p
atom_modify map yes sort 0 0.0
newton on
lattice fcc 3.621
Lattice spacing in x,y,z = 3.621 3.621 3.621
region cell block 0 2 0 2 0 2 units lattice
create_box 1 cell
Created orthogonal box = (0 0 0) to (7.242 7.242 7.242)
  1 by 2 by 2 MPI processor grid
create_atoms 1 box
Created 32 atoms
  using lattice units in orthogonal box = (0 0 0) to (7.242 7.242 7.242)
  create_atoms CPU = 0.000 seconds
mass 1 63.545999999999999
reset_atoms id sort yes
Resetting atom IDs ...
WARNING: Communication cutoff is 0.0. No ghost atoms will be generated. Energies and forces may be wrong and atoms may get lost. (src/comm_brick.cpp:212)
displace_atoms all random 0.01 0.01 0.01 78316 units box
Displacing atoms ...
velocity all create 1086.2160000000001 86235 mom yes rot no dist gaussian
neighbor 0.3 bin
neigh_modify every 1 delay 0 check yes
pair_style hybrid/overlay ye3t model_family tagged_cauchy block_policy direct zbl 1.2826759996174664 1.6491548566510283
YE3T configuration: model_family tagged_cauchy, source_realization model_default, chunksize 4096, block_policy direct, plan none, auto_replay none
pair_coeff * * ye3t models/ye3t_tagged_127/model.ye3t.json Cu
YE3T CPU dispatch: PACE-compatible spline/half-complex source with split-real harmonics, exact signed-m expansion/collapse, tiled split-real symmetric-power forward/adjoint, source_model fb22139f16fb30e1ede086b8ef65b02ea55e4813a6d91f445d4ab3ddef033616, direct_logical_plan 244a7fa151c963d8b737e053b51494c665b44c806020223e4e8dc50cd5dbb573
YE3T CPU source schedule: complete environments in 8/16-center batches, soft cache target 1048576 bytes (992 edges), no source-table replay; chunksize is an outer packing limit, not a memory limit
YE3T self-contained composite: ordinary model 465f2d8acfb533dda8b847b80dae9d7c0b59b7c0ef1e4452a4c6111f2d17e49c, tagged model abd7e735c2a738015efd2fc78a574584281c3ee41050d50c17a00ac9c249bafb, manifest fb22139f16fb30e1ede086b8ef65b02ea55e4813a6d91f445d4ab3ddef033616, ordinary evaluator compiled_direct, tagged evaluator compiled_direct
YE3T tagged-Cauchy CPU dispatch: real-arithmetic exact moment reduction, evaluator compiled_direct, portfolio 2aea5ffbbccd5f94f2c85d3dead252c941d90684e68ec879fc8346460a9205e2, tag_count 2, feature_count 69, model_self_hash 244a7fa151c963d8b737e053b51494c665b44c806020223e4e8dc50cd5dbb573
Loaded YE3T tagged-Cauchy potential models/ye3t_tagged_127/model.ye3t.json
pair_coeff * * zbl 29 29
timestep 0.0005
thermo 100
thermo_style custom step temp pe ke etotal press
thermo_modify format float %.17g
fix thermostat all nvt temp 1086.2160000000001 1086.2160000000001 0.05
run 2000
Neighbor list info ...
  update: every = 1 steps, delay = 0 steps, check = yes
  max neighbors/atom: 2000, page size: 100000
  master list distance cutoff = 4.9380492
  ghost atom cutoff = 4.9380492
  binsize = 2.4690246, bins = 3 3 3
  2 neighbor lists, perpetual/occasional/extra = 2 0 0
  (1) pair ye3t, perpetual
      attributes: full, newton on, cut 4.938049165633363
      pair build: full/bin/atomonly
      stencil: full/bin/3d
      bin: standard
  (2) pair zbl, perpetual, half/full from (1)
      attributes: half, newton on
      pair build: halffull/newton
      stencil: none
      bin: none
Per MPI rank memory allocation (min/avg/max) = 8.708 | 8.903 | 9.035 Mbytes
   Step          Temp          PotEng         KinEng         TotEng         Press     
         0  1086.2160000000003 -131.20544152876914 4.3525375675009217 -126.85290396126823 30330.622275340596
       100  352.050502464114 -127.87846450164866 1.4106890688708613 -126.4677754327778 67465.589441085045
       200  640.74369826618044 -127.9035669811777 2.5675013237174049 -125.3360656574603 70486.435418246707
       300  1091.4706499426704 -128.01606828378783 4.3735932887198494 -123.64247499506799 75645.467678981542
       400  1046.2393863155257 -126.65287427950415 4.1923486981755325 -122.46052558132861 90268.507532630276
       500  1160.5482843253924 -125.95625572632935 4.650391824853445 -121.3058639014759 104732.96492994676
       600  1538.0248115469929 -127.32365436646708 6.162964614779022 -121.16068975168805 90686.505492729702
       700  683.33434072658736 -125.48463142063289 2.7381647749397411 -122.74646664569315 101838.77824724108
       800  1428.1155049211438 -127.99060236117731 5.7225509345285142 -122.2680514266488 77069.370617288019
       900  1013.6047553853927 -127.1009303925328 4.0615796272679674 -123.03935076526483 85701.297503379959
      1000  830.56645073909976 -126.97779084307695 3.3281333354948135 -123.64965750758213 84099.107319503993
      1100  1048.7205465201689 -127.01864470267671 4.2022908671379655 -122.81635383553875 87447.181922229487
      1200  1303.2929323029539 -126.59409434734783 5.222378835615606 -121.37171551173223 97718.66689151428
      1300  1176.3705308118608 -126.45924443114976 4.713792586980512 -121.74545184416924 96482.645069352919
      1400  1169.8443739546499 -127.2418636878399 4.687641855549181 -122.55422183229072 85012.24070308634
      1500  1151.2489448778872 -128.05109156679472 4.6131287719263945 -123.43796279486833 73722.197743102239
      1600  606.72650276969625 -126.97195699429625 2.4311922274239692 -124.54076476687229 82434.052569790088
      1700  882.85499732171172 -128.336502782135 3.5376569140011513 -124.79884586813385 66660.037143073263
      1800  1024.2453834092155 -127.66717696006853 4.1042173100267298 -123.5629596500418 78844.782260773165
      1900  1092.632006970045 -126.76064685067075 4.3782469212302608 -122.3823999294405 87330.865998687077
      2000  973.95116096902871 -125.53247494991294 3.902685116983025 -121.62978983292992 108015.41907032956
Loop time of 0.780201 on 4 procs for 2000 steps with 32 atoms

Performance: 110.741 ns/day, 0.217 hours/ns, 2563.443 timesteps/s, 82.030 katom-step/s
86.5% CPU use with 4 MPI tasks x 1 OpenMP threads

MPI task timing breakdown:
Section |  min time  |  avg time  |  max time  |%varavg| %total
---------------------------------------------------------------
Pair    | 0.54351    | 0.58343    | 0.62309    |   4.5 | 74.78
Neigh   | 0.0010145  | 0.0010617  | 0.0011104  |   0.1 |  0.14
Comm    | 0.14928    | 0.18903    | 0.22891    |   7.9 | 24.23
Output  | 0.00024032 | 0.00027096 | 0.00036202 |   0.0 |  0.03
Modify  | 0.0034681  | 0.0037979  | 0.0039897  |   0.3 |  0.49
Other   |            | 0.002604   |            |       |  0.33

Nlocal:              8 ave           9 max           7 min
Histogram: 1 0 0 0 0 2 0 0 0 1
Nghost:            213 ave         214 max         212 min
Histogram: 1 0 0 0 0 2 0 0 0 1
Neighs:         174.75 ave         188 max         160 min
Histogram: 1 0 0 0 0 1 1 0 0 1
FullNghs:        349.5 ave         389 max         307 min
Histogram: 1 0 0 0 0 2 0 0 0 1

Total # of neighbors = 1398
Ave neighs/atom = 43.6875
Neighbor list builds = 71
Dangerous builds = 0
unfix thermostat
reset_timestep 0
fix integrate all nve
dump trajectory all custom 100 trajectory.ye3t_tagged_127.lammpstrj id type x y z vx vy vz fx fy fz
dump_modify trajectory sort id
print "YE3T_NVE_BEGIN"
YE3T_NVE_BEGIN
run 10000
Per MPI rank memory allocation (min/avg/max) = 9.071 | 9.149 | 9.257 Mbytes
   Step          Temp          PotEng         KinEng         TotEng         Press     
         0  973.95116096902871 -125.53247494991294 3.902685116983025 -121.62978983292992 108015.41907032956
       100  1386.993770204004 -127.18762538838357 5.5577734913706545 -121.62985189701291 88080.360241674745
       200  1033.5937949301722 -125.77151127826843 4.1416769979170045 -121.62983428035143 102538.56647367906
       300  1054.2001821526424 -125.85409889516913 4.2242481205263864 -121.62985077464275 100616.74134377112
       400  1475.8350692374272 -127.54371192472354 5.9137663064171617 -121.62994561830638 83873.130867551692
       500  1256.5075994861722 -126.66483550164367 5.0349069895987215 -121.62992851204494 90047.044045835311
       600  945.11001530115959 -125.41695638165891 3.7871167861821839 -121.62983959547672 107328.81356263487
       700  1423.5597873857619 -127.33418558003558 5.7042958805432358 -121.62988969949234 86422.173938502528
       800  1032.0287559316944 -125.76520804072067 4.1354057857129138 -121.62980225500775 104658.89160197397
       900  1050.9739438786685 -125.84116032441918 4.211320375686336 -121.62983994873284 101938.94913369998
      1000  1472.1611732106924 -127.52897326035031 5.8990447680901115 -121.62992849226021 86577.678431038148
      1100  1041.3788892244595 -125.80272707785392 4.1728723728538704 -121.62985470500004 104767.72975922568
      1200  1098.8772016244584 -126.03315691883722 4.4032718189943241 -121.62988509984289 99529.668796649479
      1300  1453.6572300111361 -127.45481669202533 5.8248982742776727 -121.62991841774766 86130.662178087514
      1400  1093.6214499825376 -126.01208931182117 4.382211683195445 -121.62987762862572 101032.50904604211
      1500  1298.1019670044891 -126.83150182046194 5.20157830287335 -121.62992351758859 91389.092238265133
      1600  1234.2072268624468 -126.57547112253781 4.9455479582329209 -121.62992316430488 95596.696136673985
      1700  1280.8411641325818 -126.76232740910501 5.1324131525301366 -121.62991425657488 94237.365454965533
      1800  1187.4796033413802 -126.38817772847324 4.7583073570859282 -121.62987037138731 97483.340085367934
      1900  1235.8110621059002 -126.58186620518933 4.9519746294927929 -121.62989157569653 94001.972403730382
      2000  1148.96958382465 -126.23387082379676 4.6039952251786822 -121.62987559861809 98767.203906934097
      2100  1200.4448562849223 -126.44009055560275 4.8102599618246904 -121.62983059377807 96620.885506204984
      2200  1003.1538331262445 -125.64952219033603 4.0197021077433295 -121.6298200825927 108296.03883978123
      2300  1356.0027143188668 -127.0635155706394 5.4335903316707599 -121.62992523896864 87886.309087264759
      2400  1252.8032243466153 -126.64996994920347 5.0200633195008422 -121.62990662970262 95490.285174784585
      2500  1182.3739834168496 -126.36773814671372 4.7378488087613775 -121.62988933795233 97665.071427279894
      2600  1132.3440120840535 -126.16727469199938 4.5373754869478624 -121.62989920505152 99401.638029452894
      2700  1359.855669085895 -127.07896102819419 5.4490293699185592 -121.62993165827562 90236.476831184438
      2800  1159.1633035043469 -126.27474939236637 4.6448421173791781 -121.62990727498719 99757.949334752106
      2900  1377.6846243648981 -127.15051076523145 5.5204711435999956 -121.63003962163145 88459.23278947889
      3000  1420.4449987990754 -127.32178575526152 5.6918147217880932 -121.62997103347342 90222.109922278236
      3100  1111.3701804104503 -126.08318683169384 4.4533319907244602 -121.62985484096937 102137.28180312189
      3200  1124.9103290689811 -126.1374702756967 4.5075882396710814 -121.62988203602562 98990.949949569345
      3300  1185.0740983611508 -126.37852880125803 4.7486683434871058 -121.62986045777092 99150.794875556152
      3400  1342.8941790044357 -127.01099375962858 5.3810635852308497 -121.62993017439773 92100.08509029042
      3500  1104.6078532027691 -126.05616372014799 4.4262349094669888 -121.62992881068101 101743.49789531143
      3600  1444.0028985959661 -127.41615426682031 5.7862127456409818 -121.62994152117933 87759.28381595893
      3700  1042.465275356421 -125.80712292572181 4.1772255921511139 -121.6298973335707 107285.4190785879
      3800  1364.6736211630998 -127.09826929203606 5.4683352146257382 -121.62993407741033 87801.327656279987
      3900  1225.6524390207105 -126.54116730496617 4.911268371610042 -121.62989893335612 98782.537479594757
      4000  1177.5305751840096 -126.34833537023971 4.7184409595967738 -121.62989441064293 101177.48849950796
      4100  1066.1253746171728 -125.90195469358324 4.2720331358470478 -121.62992155773618 101129.88985757498
      4200  1546.080771171172 -127.82518617582863 6.1952453645622239 -121.62994081126641 82718.477976096401
      4300  1040.3111750027776 -125.7984352009976 4.1685939731053621 -121.62984122789224 105656.27701125931
      4400  1019.2557684771716 -125.7140830977539 4.0842236011888149 -121.62985949656509 102448.56871952517
      4500  1310.0914989678438 -126.8795109589044 5.2496211307153766 -121.62988982818902 91733.657459335489
      4600  1218.0153218192786 -126.51049219531453 4.880665950428031 -121.6298262448865 96001.951763804056
      4700  1157.691598903368 -126.26884818806516 4.6389449021254672 -121.62990328593969 98272.949475831032
      4800  1256.0002783218576 -126.662770606067 5.0328741209736343 -121.62989648509337 94445.909144712961
      4900  1091.0387347245057 -126.00174571059134 4.3718625765842907 -121.62988313400704 102396.78688940578
      5000  1418.5085501164219 -127.3139858218193 5.6840552470254435 -121.62993057479386 88341.197923893269
      5100  1065.791594852506 -125.90056258558155 4.2706956588029019 -121.62986692677865 101331.79702112496
      5200  1085.1418620172733 -125.97805380974688 4.3482334273276058 -121.62982038241928 102597.62739000423
      5300  1096.7817093898464 -126.02472153264122 4.3948750464614621 -121.62984648617976 104010.79330976924
      5400  1487.2791401475179 -127.58970343419898 5.9596234366392489 -121.63007999755973 83131.248387048268
      5500  1415.8414531316314 -127.30336553236026 5.673368017392967 -121.6299975149673 89367.921956131409
      5600  1098.8799201888914 -126.03317285464485 4.403282712457341 -121.62989014218751 104697.19632989092
      5700  1348.4733651038821 -127.03339304534924 5.4034197437609386 -121.62997330158831 89634.51433695275
      5800  1165.2170626812958 -126.29899864693164 4.669099920838411 -121.62989872609323 96408.254096651057
      5900  1214.1273388979384 -126.49493441078261 4.8650865521067619 -121.62984785867584 97483.497615114
      6000  1144.8351524799357 -126.21726943560407 4.5874282921302623 -121.62984114347381 99322.495700959873
      6100  1110.4049009277223 -126.07931058834916 4.4494640535814689 -121.62984653476769 99250.800373105507
      6200  1199.7859600057652 -126.43751839977313 4.8076197219385923 -121.62989867783453 97292.370953798614
      6300  1335.5058968139585 -126.98136272949466 5.3514582619863473 -121.62990446750831 90446.819391770317
      6400  1244.7324555055618 -126.61768900369324 4.9877232282305046 -121.62996577546274 93916.537586477833
      6500  1218.8294756885075 -126.51382722946013 4.8839283174908843 -121.62989891196925 97234.223435692722
      6600  1249.115094528504 -126.63516500396173 5.0052847454537375 -121.629880258508 96521.339723772689
      6700  1138.4524143261331 -126.1917315610408 4.5618522486932775 -121.62987931234753 99696.863636004782
      6800  1059.7363999183469 -125.87626524862009 4.2464321021719291 -121.62983314644816 105720.40473786763
      6900  1373.5568069943411 -127.13381739808113 5.5039307131725925 -121.62988668490854 89384.962914148768
      7000  1086.316585319556 -125.98281890105585 4.3529406193636317 -121.62987828169221 101282.00614361632
      7100  1320.4543666528759 -126.92108105679858 5.291145809882452 -121.62993524691613 93039.897788975926
      7200  1106.0720601956355 -126.06200637370537 4.4321020813214345 -121.62990429238394 99990.719214555909
      7300  1349.838478071287 -127.0387844617278 5.4088898394642912 -121.62989462226351 89312.51656048483
      7400  1102.7854711873695 -126.04877732101113 4.4189325071967538 -121.62984481381437 103608.38102261274
      7500  1249.0891943956158 -126.63508013815292 5.0051809619508258 -121.62989917620209 93866.553465092307
      7600  1148.6908866884694 -126.23276656303983 4.6028784677794343 -121.6298880952604 100547.2788598076
      7700  1382.7843382376129 -127.17084207533568 5.5409060259940102 -121.62993604934168 91288.036221140763
      7800  1006.056215619749 -125.66112575278268 4.0313321415839614 -121.62979361119872 103422.61592228002
      7900  1172.5551710762302 -126.32830632414843 4.6985041944482138 -121.62980212970021 98328.917254036773
      8000  1070.2008743698943 -125.91816134567614 4.2883639262055597 -121.62979741947058 102367.38722838866
      8100  1186.4950047812479 -126.38422744599174 4.7543620071537944 -121.62986543883795 95290.36589866443
      8200  1189.6160552973543 -126.3967432226149 4.7668682578639858 -121.62987496475091 98824.836821982841
      8300  1134.1408055816607 -126.17447255796341 4.5445753543769714 -121.62989720358644 97034.344170016368
      8400  1251.8400254418091 -126.6460511222808 5.0162037193677707 -121.62984740291303 95852.064033213886
      8500  1274.778191818016 -126.73799543867509 5.1081184314342725 -121.62987700724081 93387.760667670838
      8600  1186.981678404549 -126.38624290993175 4.7563121397503769 -121.62993077018137 98396.40768748257
      8700  1257.7899743274575 -126.66988074782114 5.0400455482945166 -121.62983519952662 95875.649934454792
      8800  1136.2844539928449 -126.18298401312927 4.55316509181519 -121.62981892131408 102973.90401501178
      8900  1061.1426290686557 -125.88192483129762 4.2520669530719655 -121.62985787822566 104365.08169396897
      9000  1264.6406678831543 -126.69738846783932 5.067496719207675 -121.62989174863165 96816.470038614585
      9100  1238.1601718987497 -126.59126300303461 4.9613876639385772 -121.62987533909603 96691.128250616675
      9200  1185.650358899803 -126.38087227371568 4.750977456631408 -121.62989481708428 97997.313198858465
      9300  1238.3029936841799 -126.59186547765924 4.9619599600440871 -121.62990551761516 95266.532452098603
      9400  1200.9495939756891 -126.44214054247539 4.8122824783046507 -121.62985806417073 99347.778565020388
      9500  992.40705847889444 -125.60639725855091 3.9766390886181671 -121.62975816993274 105631.57974148385
      9600  1357.4100095177807 -127.06913137433236 5.4392294542963118 -121.62990192003605 90661.444433749188
      9700  1258.2277421685326 -126.67170987935523 5.041799712267542 -121.62991016708769 95309.870565671226
      9800  1165.9214254799833 -126.30178533695877 4.6719223480006304 -121.62986298895814 98119.056316305025
      9900  1084.5105557018594 -125.9755552322751 4.3457037422056413 -121.62985149006946 104125.45137954594
     10000  1308.3164799469384 -126.87243089886414 5.2425085150187574 -121.62992238384538 89438.399797683189
Loop time of 3.78889 on 4 procs for 10000 steps with 32 atoms

Performance: 114.018 ns/day, 0.210 hours/ns, 2639.299 timesteps/s, 84.458 katom-step/s
85.8% CPU use with 4 MPI tasks x 1 OpenMP threads

MPI task timing breakdown:
Section |  min time  |  avg time  |  max time  |%varavg| %total
---------------------------------------------------------------
Pair    | 2.8148     | 2.8807     | 2.9722     |   3.4 | 76.03
Neigh   | 0.0057529  | 0.0058483  | 0.0059433  |   0.1 |  0.15
Comm    | 0.77868    | 0.87102    | 0.93671    |   6.2 | 22.99
Output  | 0.007804   | 0.008634   | 0.010486   |   1.2 |  0.23
Modify  | 0.0024643  | 0.0025523  | 0.0026819  |   0.2 |  0.07
Other   |            | 0.02013    |            |       |  0.53

Nlocal:              8 ave           9 max           5 min
Histogram: 1 0 0 0 0 0 0 0 0 3
Nghost:            213 ave         216 max         212 min
Histogram: 3 0 0 0 0 0 0 0 0 1
Neighs:            175 ave         199 max         109 min
Histogram: 1 0 0 0 0 0 0 0 0 3
FullNghs:          350 ave         396 max         220 min
Histogram: 1 0 0 0 0 0 0 0 0 3

Total # of neighbors = 1400
Ave neighs/atom = 43.75
Neighbor list builds = 395
Dangerous builds = 0
print "YE3T_NVE_END"
YE3T_NVE_END
Total wall time: 0:00:04
