LAMMPS (22 Jul 2025 - Update 4)
OMP_NUM_THREADS environment is not set. Defaulting to 1 thread.
  using 1 OpenMP thread(s) per MPI task
# 2000-step NVT preparation plus 10000-step NVE stability gate.
units metal
atom_style atomic
boundary p p p
atom_modify map yes sort 0 0.0
newton on
lattice diamond 5.4690000000000003
Lattice spacing in x,y,z = 5.469 5.469 5.469
region cell block 0 2 0 2 0 2 units lattice
create_box 1 cell
Created orthogonal box = (0 0 0) to (10.938 10.938 10.938)
  2 by 1 by 2 MPI processor grid
create_atoms 1 box
Created 64 atoms
  using lattice units in orthogonal box = (0 0 0) to (10.938 10.938 10.938)
  create_atoms CPU = 0.000 seconds
mass 1 28.0855
reset_atoms id sort yes
Resetting atom IDs ...
WARNING: Communication cutoff is 0.0. No ghost atoms will be generated. Energies and forces may be wrong and atoms may get lost. (src/comm_brick.cpp:212)
displace_atoms all random 0.01 0.01 0.01 78320 units box
Displacing atoms ...
velocity all create 1348 86239 mom yes rot no dist gaussian
neighbor 0.3 bin
neigh_modify every 1 delay 0 check yes
pair_style hybrid/overlay ye3t model_family tagged_cauchy block_policy direct zbl 1.6457950832211634 2.1943934442948843
YE3T configuration: model_family tagged_cauchy, source_realization model_default, chunksize 4096, block_policy direct, plan none, auto_replay none
pair_coeff * * ye3t models/ye3t_tagged_127/model.ye3t.json Si
YE3T CPU dispatch: PACE-compatible spline/half-complex source with split-real harmonics, exact signed-m expansion/collapse, tiled split-real symmetric-power forward/adjoint, source_model 41cddb3756766f9397286f2e3fde3931eb8e73e99671432a44f04aa41c6693bb, direct_logical_plan 899c980843fe5008235ed1aba70d9a5e7f59a0db9ed33bf54cdad82472521b1b
YE3T CPU source schedule: complete environments in 8/16-center batches, soft cache target 1048576 bytes (992 edges), no source-table replay; chunksize is an outer packing limit, not a memory limit
YE3T self-contained composite: ordinary model 9c35829403ff4200ab43a8693efc26a956e39c759b0b2722e854bd0e70c8c291, tagged model 7aa30505016f886b5404dbb8878f9d99dc389ff132fd676e078e0abed18b16eb, manifest 41cddb3756766f9397286f2e3fde3931eb8e73e99671432a44f04aa41c6693bb, ordinary evaluator compiled_direct, tagged evaluator compiled_direct
YE3T tagged-Cauchy CPU dispatch: real-arithmetic exact moment reduction, evaluator compiled_direct, portfolio 16f871c6ac476d106ade3ebaa518e2c6d343486ff4ac99236197faced2f3a326, tag_count 2, feature_count 69, model_self_hash 899c980843fe5008235ed1aba70d9a5e7f59a0db9ed33bf54cdad82472521b1b
Loaded YE3T tagged-Cauchy potential models/ye3t_tagged_127/model.ye3t.json
pair_coeff * * zbl 14 14
timestep 0.0005
thermo 100
thermo_style custom step temp pe ke etotal press
thermo_modify format float %.17g
fix thermostat all nvt temp 1348 1348 0.05
run 2000
Neighbor list info ...
  update: every = 1 steps, delay = 0 steps, check = yes
  max neighbors/atom: 2000, page size: 100000
  master list distance cutoff = 5.0572724
  ghost atom cutoff = 5.0572724
  binsize = 2.5286362, bins = 5 5 5
  2 neighbor lists, perpetual/occasional/extra = 2 0 0
  (1) pair ye3t, perpetual
      attributes: full, newton on, cut 5.05727237329569
      pair build: full/bin/atomonly
      stencil: full/bin/3d
      bin: standard
  (2) pair zbl, perpetual, half/full from (1)
      attributes: half, newton on
      pair build: halffull/newton
      stencil: none
      bin: none
Per MPI rank memory allocation (min/avg/max) = 8.908 | 8.932 | 8.941 Mbytes
   Step          Temp          PotEng         KinEng         TotEng         Press     
         0  1348.0000000000002 -347.15090531079176 10.977288553980001 -336.17361675681178 2520.4922097125022
       100  493.04068767307609 -338.6990222610853 4.0150221791098559 -334.68400008197546 6259.3533449161505
       200  863.85492250676828 -339.28121947812122 7.0347067901578839 -332.24651268796333 12089.712931384458
       300  1286.9903484038584 -339.11120258755767 10.480463220041845 -328.63073936751584 10145.11276825365
       400  1209.9691628101607 -335.19071201992364 9.8532497341133087 -325.33746228581032 12633.473519489187
       500  1259.6381455422136 -332.35352631660317 10.25772358844001 -322.09580272816316 16937.676571109991
       600  1864.1472258575895 -336.6644260218257 15.180476265089085 -321.48394975673659 24235.159907073958
       700  1125.5345426080487 -333.63671496290004 9.1656657653415774 -324.47104919755844 14058.636538059418
       800  1682.2039998253831 -337.42277888565098 13.698841775031566 -323.72393711061943 18831.113984673826
       900  1359.587635350214 -335.26142758626708 11.071651177791274 -324.18977640847578 17221.801291539443
      1000  999.76775557264682 -333.31412507254902 8.1414978782536274 -325.17262719429539 16044.5392588789
      1100  1418.9489076467576 -335.45957149041811 11.555053117650724 -323.90451837276737 18050.523488574778
      1200  1441.1394844655592 -334.98968127947148 11.735759619816337 -323.25392165965513 20066.719781631669
      1300  1181.8337612749538 -333.68095940414207 9.6241322109426424 -324.05682719319941 18188.623867231014
      1400  1463.2891427988334 -335.18189578427041 11.916132906831484 -323.26576287743893 17559.220766878592
      1500  1538.2515400392329 -334.98676091004751 12.526580878052506 -322.46018003199498 20966.39030485577
      1600  1250.0219694194388 -333.30418763404805 10.17941532428156 -323.12477230976651 13990.988446063322
      1700  1445.0953512153551 -335.64233545334884 11.767973782126132 -323.87436167122269 17153.738397187844
      1800  1252.4456626585411 -335.95247878746517 10.199152401471439 -325.75332638599372 15661.587338715588
      1900  1243.7960603952899 -336.65536893578223 10.128715324378808 -326.52665361140345 15624.628354457973
      2000  1182.1889013451782 -334.29694039755856 9.6270242547319107 -324.66991614282665 18963.304478340997
Loop time of 1.01717 on 4 procs for 2000 steps with 64 atoms

Performance: 84.942 ns/day, 0.283 hours/ns, 1966.249 timesteps/s, 125.840 katom-step/s
90.5% CPU use with 4 MPI tasks x 1 OpenMP threads

MPI task timing breakdown:
Section |  min time  |  avg time  |  max time  |%varavg| %total
---------------------------------------------------------------
Pair    | 0.83987    | 0.86023    | 0.90562    |   2.9 | 84.57
Neigh   | 0.0026199  | 0.002683   | 0.0027999  |   0.1 |  0.26
Comm    | 0.10153    | 0.14701    | 0.16701    |   6.9 | 14.45
Output  | 0.00024075 | 0.00025946 | 0.0003038  |   0.0 |  0.03
Modify  | 0.004546   | 0.0047346  | 0.0051408  |   0.4 |  0.47
Other   |            | 0.002239   |            |       |  0.22

Nlocal:             16 ave          19 max          12 min
Histogram: 1 0 0 0 0 1 0 1 0 1
Nghost:         217.25 ave         221 max         213 min
Histogram: 1 0 0 0 0 1 1 0 0 1
Neighs:            223 ave         268 max         163 min
Histogram: 1 0 0 0 0 0 2 0 0 1
FullNghs:          446 ave         526 max         336 min
Histogram: 1 0 0 0 0 1 0 1 0 1

Total # of neighbors = 1784
Ave neighs/atom = 27.875
Neighbor list builds = 131
Dangerous builds = 0
unfix thermostat
reset_timestep 0
fix integrate all nve
dump trajectory all custom 100 trajectory.ye3t_tagged_127.lammpstrj id type x y z vx vy vz fx fy fz
dump_modify trajectory sort id
print "YE3T_NVE_BEGIN"
YE3T_NVE_BEGIN
run 10000
Per MPI rank memory allocation (min/avg/max) = 8.973 | 8.993 | 9.033 Mbytes
   Step          Temp          PotEng         KinEng         TotEng         Press     
         0  1182.1889013451782 -334.29694039755839 9.6270242547319107 -324.66991614282648 18963.30447834175
       100  1246.141129621047 -334.81803904010479 10.147812135632661 -324.67022690447214 21407.198710756147
       200  1171.7575685448921 -334.2121166840455 9.5420778525424925 -324.67003883150301 18178.073263749688
       300  1124.2864237777603 -333.82514177438168 9.1555018480198189 -324.66963992636187 20218.348347456849
       400  1206.7224380641892 -334.49722820391514 9.8268103910926285 -324.67041781282251 14021.002923474656
       500  1473.439639227704 -336.66964600250009 11.998792349165205 -324.67085365333486 17464.70487590921
       600  1199.8470911481977 -334.44109006319729 9.7708217657175869 -324.67026829747971 16035.567378643462
       700  1141.9505249621777 -333.96935504489903 9.2993474976845434 -324.67000754721448 17007.167119888451
       800  1306.6648804542938 -335.3110030100882 10.640680590577571 -324.67032241951063 17236.664881338431
       900  1160.5083792935552 -334.12051310530933 9.4504713270155971 -324.67004177829375 15658.767734944377
      1000  1320.8007863163516 -335.42615129732411 10.755794772788034 -324.67035652453609 17237.462849428048
      1100  1266.1211441924484 -334.98085828531663 10.310517169210552 -324.6703411161061 18109.581841689665
      1200  1269.6286676121588 -335.0096200268917 10.339080297317381 -324.67053972957433 18724.968048341649
      1300  1194.8428505648692 -334.40012617564634 9.7300702873223841 -324.67005588832393 15138.234457870027
      1400  1269.7406335925141 -335.01018469214216 10.339992079865295 -324.67019261227688 17862.346010014451
      1500  1272.2512812223556 -335.0307195227067 10.36043726049596 -324.67028226221072 15752.33675964438
      1600  1473.0238255253021 -336.6663919721932 11.99540621637888 -324.67098575581434 13873.105563718686
      1700  1156.1253345169041 -334.08512977111798 9.414778487803197 -324.6703512833148 17716.581990904051
      1800  1334.8349357658149 -335.54052247187042 10.870080312933759 -324.67044215893668 20646.92096366558
      1900  1394.1720843688495 -336.02415502031897 11.353285804169593 -324.67086921614936 14717.373011755319
      2000  1346.4502713026145 -335.63524485355163 10.964668510143513 -324.67057634340813 14994.546033888257
      2100  1231.3635417213598 -334.6976504574028 10.02747248688884 -324.67017797051398 14320.114212652741
      2200  1339.2647140344504 -335.57653511518862 10.906153721157025 -324.67038139403161 17910.366887429911
      2300  1196.4882597139533 -334.4140274538733 9.7434694943096662 -324.67055795956361 16039.483759339388
      2400  1446.1208255841739 -336.44676200118766 11.776324618959391 -324.67043738222827 16628.993065261733
      2500  1193.0185929300023 -334.38541542931011 9.7152146475191685 -324.67020078179092 12611.052675129766
      2600  1402.2800627597244 -336.09009025949086 11.419312227304658 -324.67077803218621 17247.094966280481
      2700  1335.6516900774436 -335.54726158467219 10.876731461121041 -324.67053012355115 13572.430420677234
      2800  1371.3193253142069 -335.83767413516091 11.167186894379244 -324.67048724078165 15910.570136218807
      2900  1177.122814741537 -334.25598454618796 9.5857691401268497 -324.67021540606112 15946.496339965675
      3000  1607.5580229837669 -337.76190425046576 13.090970538248088 -324.67093371221767 16932.210337117762
      3100  1218.3623883957798 -334.59205981610285 9.9215990361548432 -324.67046077994803 14128.574595159744
      3200  1188.912834884143 -334.35176670858812 9.6817798620575779 -324.66998684653055 17346.554579437496
      3300  1264.6148924729725 -334.96872878629586 10.298251175323598 -324.67047761097228 17688.522968838603
      3400  1449.8881668339261 -336.47781609244566 11.807003544760461 -324.67081254768522 15323.856162884385
      3500  1472.6306625229477 -336.66305689131087 11.992204537057223 -324.67085235425367 12917.404124383898
      3600  1259.4086867900983 -334.92585997544688 10.255855016531104 -324.6700049589158 16310.873615168503
      3700  1312.6398529824853 -335.35974341242422 10.689337116945568 -324.67040629547864 15680.371973325819
      3800  1257.5212905644173 -334.91083260964496 10.240485214613454 -324.67034739503151 15841.727853184157
      3900  1402.6419454236918 -336.09274834944335 11.422259178658555 -324.67048917078478 17706.820914496599
      4000  1275.4792792157589 -335.05721601623702 10.386724104283243 -324.67049191195377 15427.339558643203
      4100  1356.3223662093585 -335.7153357067146 11.04506082054678 -324.67027488616782 18269.418580945552
      4200  1313.9049095660591 -335.37037459207085 10.699638964983404 -324.67073562708742 14068.787032321134
      4300  1419.9623969221186 -336.23374440714531 11.563306355204139 -324.67043805194118 15595.393145887576
      4400  1225.7891295254415 -334.65232547260166 9.982077879178588 -324.67024759342308 14575.145099689
      4500  1286.0160899830385 -335.14296611196494 10.472529454603057 -324.6704366573619 16202.459591630259
      4600  1342.8768678198965 -335.60622720778997 10.935568895047377 -324.6706583127426 17835.103347847496
      4700  1274.1492161102694 -335.04601282591534 10.375892882841136 -324.67011994307421 17920.839147011742
      4800  1297.209286680195 -335.23429252657644 10.5636800109726 -324.67061251560386 14794.839279016611
      4900  1374.5396320106333 -335.8642508569252 11.193411104942289 -324.6708397519829 14903.966318079889
      5000  1081.9302787511224 -333.48048653539462 8.8105792768094116 -324.66990725858523 18034.727966620678
      5100  1277.5625082076326 -335.07417830852398 10.403688648621383 -324.67048965990261 18524.360130838944
      5200  1565.4939627855881 -337.41945222762166 12.748426527456253 -324.67102570016539 14549.940390313533
      5300  1405.4381591835918 -336.11590633055016 11.445029835410061 -324.67087649514008 16313.944615834611
      5400  1138.5494366119233 -333.94155765453218 9.2716511117659071 -324.66990654276628 21827.135066983454
      5500  1221.4845768217433 -334.61734040109923 9.9470242314602579 -324.67031616963897 15071.902709770937
      5600  1233.7208818000715 -334.71713251399126 10.046669224473321 -324.67046328951795 15764.100110909045
      5700  1357.8422215570615 -335.72760975965963 11.057437594072038 -324.67017216558759 19200.988647384871
      5800  1222.390050031896 -334.62485616754185 9.954397852161847 -324.67045831538002 19742.231850426473
      5900  1195.5657845628643 -334.40649579021948 9.7359574201869794 -324.67053837003249 17213.884169755624
      6000  1438.6671373462821 -336.38647372353006 11.715626335147267 -324.67084738838281 17752.61588873226
      6100  1334.0499223075146 -335.5344077801804 10.863687642866608 -324.67072013731377 15026.550752271009
      6200  1339.1791386020329 -335.57622601126513 10.905456847110454 -324.67076916415471 18054.636281729028
      6300  1265.5911335744347 -334.97673062196088 10.306201086502385 -324.67052953545851 19566.475982641223
      6400  1274.0277969282458 -335.04553931459361 10.374904119193463 -324.67063519540017 16874.702988878216
      6500  1233.094734272757 -334.7124740792392 10.041570261502482 -324.6709038177367 17839.141067056076
      6600  1466.4633059017524 -336.61300130788635 11.941981352156512 -324.67101995572983 20318.593128880653
      6700  1218.6493214742329 -334.5947483293553 9.9239356438683899 -324.67081268548691 15821.921350759867
      6800  1408.4471061408949 -336.14023412533538 11.469532861369956 -324.67070126396544 20322.079025614654
      6900  1368.0441706847785 -335.81142023020806 11.14051603575451 -324.67090419445356 17776.979114886883
      7000  1373.9650819940659 -335.85968072166565 11.188732320579861 -324.67094840108581 15205.598054608075
      7100  1298.9974345656242 -335.24878469139384 10.578241595034577 -324.67054309635927 20264.127505352866
      7200  1357.8366952257791 -335.72820719540158 11.057392591005916 -324.67081460439567 19388.965075482116
      7300  1208.4117536593437 -334.51151039830251 9.8405671453557968 -324.6709432529467 15626.118769919938
      7400  1248.3195585854198 -334.83609765504957 10.165551930392503 -324.67054572465707 18892.40173520608
      7500  1185.757273672044 -334.32627289935857 9.656082899168144 -324.67019000019042 22507.155827890107
      7600  1177.9046554171521 -334.26263181404545 9.5921359729899542 -324.67049584105547 16551.167883401802
      7700  1412.7673903036634 -336.17583364427742 11.504714616481158 -324.67111902779624 17088.055133376558
      7800  1372.009516035585 -335.84377293529712 11.172807386000791 -324.67096554929634 15877.495239109638
      7900  1310.077663422142 -335.33933191179943 10.668472210318058 -324.67085970148139 15881.167460649547
      8000  1218.7282250334129 -334.59521346491272 9.9245781862549283 -324.67063527865781 19022.499331651419
      8100  1222.5946569363621 -334.62659380406944 9.9560640458046237 -324.67052975826482 18859.16463551042
      8200  1310.0323923699345 -335.33926957960557 10.668103550523382 -324.6711660290822 15585.397998607194
      8300  1314.2646552957901 -335.3733446400056 10.702568514450258 -324.67077612555534 14696.168464021152
      8400  1191.8452775676931 -334.3762458679472 9.7056598839458115 -324.67058598400138 19437.651442246468
      8500  1278.8479833192171 -335.08491003793824 10.414156772678373 -324.67075326525986 18252.442604520176
      8600  1326.1505303556671 -335.47008133236841 10.799359820272826 -324.67072151209561 15702.256108152445
      8700  1284.8270114946304 -335.13348779859541 10.462846325759893 -324.67064147283554 15260.869353373535
      8800  1454.9613571185157 -336.51958322597847 11.848316507403776 -324.67126671857471 18439.860800735594
      8900  1197.3173384230583 -334.42044595076163 9.7502210048614515 -324.6702249459002 20121.734783854627
      9000  1187.6736118192759 -334.34226732435184 9.6716883864152994 -324.67057893793651 18762.87454620465
      9100  1348.1178844695819 -335.64904989852141 10.978248533088779 -324.67080136543262 18982.74598943871
      9200  1168.7368687573742 -334.18791081521414 9.5174791187127212 -324.6704316965014 21620.487906390954
      9300  1184.26982662662 -334.31479120698242 9.6439700390595515 -324.6708211679229 21107.679699226872
      9400  1384.2757749577111 -335.94359201121557 11.27269630563433 -324.67089570558124 17953.53466244497
      9500  1321.4858305087944 -335.43226383850981 10.761373354221767 -324.67089048428807 18646.583214793034
      9600  1309.2836255928398 -335.33311174589505 10.66200605128614 -324.67110569460891 20150.131041061508
      9700  1320.6878360179981 -335.42544691134242 10.754874974555626 -324.67057193678681 21400.678285211801
      9800  1192.9383389044328 -334.38532801062024 9.7145611077593053 -324.67076690286092 18054.482193736676
      9900  1241.4081453144227 -334.77975987778495 10.109269602653971 -324.67049027513099 19247.935725144489
     10000  1353.9352157166472 -335.69631394095705 11.025621325160825 -324.67069261579621 17772.908752113555
Loop time of 5.06599 on 4 procs for 10000 steps with 64 atoms

Performance: 85.275 ns/day, 0.281 hours/ns, 1973.950 timesteps/s, 126.333 katom-step/s
91.0% CPU use with 4 MPI tasks x 1 OpenMP threads

MPI task timing breakdown:
Section |  min time  |  avg time  |  max time  |%varavg| %total
---------------------------------------------------------------
Pair    | 4.2125     | 4.3031     | 4.4318     |   4.3 | 84.94
Neigh   | 0.013615   | 0.013756   | 0.013913   |   0.1 |  0.27
Comm    | 0.5872     | 0.71449    | 0.80548    |  10.4 | 14.10
Output  | 0.0086296  | 0.010368   | 0.012106   |   1.6 |  0.20
Modify  | 0.0030029  | 0.0030759  | 0.0032223  |   0.2 |  0.06
Other   |            | 0.02118    |            |       |  0.42

Nlocal:             16 ave          19 max          15 min
Histogram: 3 0 0 0 0 0 0 0 0 1
Nghost:            215 ave         216 max         212 min
Histogram: 1 0 0 0 0 0 0 0 0 3
Neighs:         223.75 ave         278 max         199 min
Histogram: 2 1 0 0 0 0 0 0 0 1
FullNghs:        447.5 ave         534 max         418 min
Histogram: 3 0 0 0 0 0 0 0 0 1

Total # of neighbors = 1790
Ave neighs/atom = 27.96875
Neighbor list builds = 671
Dangerous builds = 0
print "YE3T_NVE_END"
YE3T_NVE_END
Total wall time: 0:00:06
