LAMMPS (22 Jul 2025 - Update 4)
OMP_NUM_THREADS environment is not set. Defaulting to 1 thread.
  using 1 OpenMP thread(s) per MPI task
# 2000-step NVT preparation plus 10000-step NVE stability gate.
units metal
atom_style atomic
boundary p p p
atom_modify map yes sort 0 0.0
newton on
lattice diamond 5.4690000000000003
Lattice spacing in x,y,z = 5.469 5.469 5.469
region cell block 0 2 0 2 0 2 units lattice
create_box 1 cell
Created orthogonal box = (0 0 0) to (10.938 10.938 10.938)
  1 by 1 by 1 MPI processor grid
create_atoms 1 box
Created 64 atoms
  using lattice units in orthogonal box = (0 0 0) to (10.938 10.938 10.938)
  create_atoms CPU = 0.000 seconds
mass 1 28.0855
reset_atoms id sort yes
Resetting atom IDs ...
WARNING: Communication cutoff is 0.0. No ghost atoms will be generated. Energies and forces may be wrong and atoms may get lost. (src/comm_brick.cpp:212)
displace_atoms all random 0.01 0.01 0.01 77311 units box
Displacing atoms ...
velocity all create 1348 85230 mom yes rot no dist gaussian
neighbor 0.3 bin
neigh_modify every 1 delay 0 check yes
pair_style hybrid/overlay pace product zbl 1.6457950832211634 2.1943934442948843
ACE version: 2025.12.4p1
Product evaluator is used
pair_coeff * * pace models/ace_127/potential.yace Si
Loading models/ace_127/potential.yace
Total number of basis functions
	Si: 4 (r=1) 123 (r>1)
Mapping LAMMPS atom type #1(Si) -> ACE species type #0
pair_coeff * * zbl 14 14
timestep 0.0005
thermo 100
thermo_style custom step temp pe ke etotal press
thermo_modify format float %.17g
fix thermostat all nvt temp 1348 1348 0.05
run 2000
Neighbor list info ...
  update: every = 1 steps, delay = 0 steps, check = yes
  max neighbors/atom: 2000, page size: 100000
  master list distance cutoff = 5.0572724
  ghost atom cutoff = 5.0572724
  binsize = 2.5286362, bins = 5 5 5
  2 neighbor lists, perpetual/occasional/extra = 2 0 0
  (1) pair pace, perpetual
      attributes: full, newton on, cut 5.05727237329569
      pair build: full/bin/atomonly
      stencil: full/bin/3d
      bin: standard
  (2) pair zbl, perpetual, half/full from (1)
      attributes: half, newton on
      pair build: halffull/newton
      stencil: none
      bin: none
Per MPI rank memory allocation (min/avg/max) = 3.574 | 3.574 | 3.574 Mbytes
   Step          Temp          PotEng         KinEng         TotEng         Press     
         0  1348.0000000000005 -347.05312754735621 10.977288553980003 -336.07583899337624 2999.8125474834992
       100  459.35714914700003 -338.35072811436794 3.7407240174482546 -334.61000409691968 7241.6993485084222
       200  779.91777953271753 -338.52854723123522 6.3511739720400575 -332.17737325919518 12330.842467797862
       300  1393.6430451683345 -339.90159457768254 11.348977632092129 -328.55261694559044 12981.476780524938
       400  1144.7168905529718 -334.66307392951751 9.3218750891800539 -325.34119884033748 16315.856898956998
       500  1006.6177570686108 -330.43969730536213 8.1972801060105951 -322.24241719935151 18034.203251913648
       600  1658.8072679595284 -334.63630320063254 13.508313082960656 -321.12799011767186 27853.107326247344
       700  1266.3416592799656 -334.36284983707088 10.312312909378344 -324.05053692769252 14368.682507192279
       800  1515.9507050889979 -336.66014940880507 12.344976501017335 -324.31517290778771 17985.728994952173
       900  1058.3528800832394 -333.65699896223032 8.6185793446658092 -325.0384196175645 20221.642320270315
      1000  1181.1903437405795 -334.5766561779418 9.6188926115839504 -324.95776356635787 20533.257752546629
      1100  1496.3141484869498 -336.23419766521295 12.185068379335403 -324.04912928587754 14497.729498085473
      1200  1402.8411214348112 -334.21081553220881 11.423881146423456 -322.78693438578534 18503.616860754741
      1300  1274.530865857382 -332.50564941373869 10.379000805245147 -322.12664860849355 23209.939141880586
      1400  1552.136688891012 -335.40456551717216 12.639653048349942 -322.76491246882222 19767.814602308226
      1500  1245.6243865335432 -335.29997656330494 10.143604095588296 -325.15637246771666 17433.00310976768
      1600  1268.4988482042218 -335.97209569731103 10.329879738226273 -325.64221595908475 19849.414669677732
      1700  1242.141327314783 -335.59257401304319 10.115240188989683 -325.47733382405352 17047.667857274166
      1800  1364.7154322493914 -333.85717798590076 11.113408823346521 -322.74376916255426 19141.146575232095
      1900  1488.1859559667321 -333.60040800336316 12.118877344679074 -321.48153065868411 21621.506433712799
      2000  1250.217986657743 -333.25593843419324 10.18101156893024 -323.07492686526302 20061.127233336709
Loop time of 3.37068 on 1 procs for 2000 steps with 64 atoms

Performance: 25.633 ns/day, 0.936 hours/ns, 593.353 timesteps/s, 37.975 katom-step/s
100.0% CPU use with 1 MPI tasks x 1 OpenMP threads

MPI task timing breakdown:
Section |  min time  |  avg time  |  max time  |%varavg| %total
---------------------------------------------------------------
Pair    | 3.3567     | 3.3567     | 3.3567     |   0.0 | 99.58
Neigh   | 0.0083534  | 0.0083534  | 0.0083534  |   0.0 |  0.25
Comm    | 0.0022599  | 0.0022599  | 0.0022599  |   0.0 |  0.07
Output  | 0.00030378 | 0.00030378 | 0.00030378 |   0.0 |  0.01
Modify  | 0.002263   | 0.002263   | 0.002263   |   0.0 |  0.07
Other   |            | 0.00083    |            |       |  0.02

Nlocal:             64 ave          64 max          64 min
Histogram: 1 0 0 0 0 0 0 0 0 0
Nghost:            363 ave         363 max         363 min
Histogram: 1 0 0 0 0 0 0 0 0 0
Neighs:            899 ave         899 max         899 min
Histogram: 1 0 0 0 0 0 0 0 0 0
FullNghs:         1798 ave        1798 max        1798 min
Histogram: 1 0 0 0 0 0 0 0 0 0

Total # of neighbors = 1798
Ave neighs/atom = 28.09375
Neighbor list builds = 124
Dangerous builds = 0
unfix thermostat
reset_timestep 0
fix integrate all nve
dump trajectory all custom 100 trajectory.ace_127.lammpstrj id type x y z vx vy vz fx fy fz
dump_modify trajectory sort id
print "YE3T_NVE_BEGIN"
YE3T_NVE_BEGIN
run 10000
Per MPI rank memory allocation (min/avg/max) = 3.574 | 3.574 | 3.574 Mbytes
   Step          Temp          PotEng         KinEng         TotEng         Press     
         0  1250.217986657743 -333.25593843419335 10.18101156893024 -323.07492686526314 20061.127233335956
       100  1237.2396854056037 -333.15031473795466 10.075324211522812 -323.07499052643186 21260.222578410641
       200  1437.7442989506569 -334.78309026608963 11.708111302982971 -323.07497896310667 18596.356856124759
       300  1267.0051659859366 -333.39314051647136 10.317716102678748 -323.07542441379263 15841.533030546296
       400  1453.6123963343221 -334.91262763807634 11.837331394810231 -323.07529624326611 17299.843968662222
       500  1416.4742283468074 -334.61004494097574 11.5349008411269 -323.07514409984884 20785.489948021812
       600  1326.1398042256817 -333.87474554326172 10.799272473222443 -323.07547307003927 18671.35436020228
       700  1426.0740295454088 -334.68869193418249 11.613075757905751 -323.07561617627675 16516.684739600565
       800  1601.1471747704247 -336.1144303059495 13.038764506561423 -323.07566579938805 20380.602711699143
       900  1375.1896470503311 -334.2741793844188 11.198704430354152 -323.07547495406465 17781.720000478908
      1000  1415.012755172088 -334.59840317996685 11.522999496354796 -323.07540368361208 19204.322297067381
      1100  1348.8825068534309 -334.05949512523063 10.984475150701792 -323.07501997452886 20229.82781572844
      1200  1515.6452408903253 -335.41844171054078 12.342488987180733 -323.07595272336005 17018.116698664737
      1300  1391.4049022075035 -334.40631084157093 11.330751563022321 -323.07555927854861 16482.699145007293
      1400  1597.5146131156489 -336.08422087499497 13.009183143449704 -323.07503773154525 21645.359229396017
      1500  1266.940153907854 -333.39223806529947 10.317186684028446 -323.07505138127101 18240.167030108823
      1600  1524.6909505829003 -335.49181953251303 12.416151721209612 -323.07566781130345 19449.577727034241
      1700  1344.6657270729554 -334.02535701219279 10.950136272052781 -323.07522074014003 20581.463059232959
      1800  1432.8769733775134 -334.74358261875079 11.668474776794127 -323.07510784195665 21126.658505800231
      1900  1306.411958814477 -333.71375931027654 10.63862095124388 -323.07513835903268 18999.399961369447
      2000  1536.3035370947314 -335.58605221179658 12.510717532039305 -323.0753346797573 20684.53857858809
      2100  1158.2026028627954 -332.50674507805019 9.4316944922816077 -323.07505058576857 18985.915217354574
      2200  1435.7639458868798 -334.76734198234163 11.691984517359945 -323.07535746498166 20913.95921810835
      2300  1401.0515963990056 -334.48472960808959 11.409308347690066 -323.07542126039954 17963.521424358383
      2400  1532.3618553297822 -335.55463396125282 12.478618883580991 -323.07601507767185 18461.776677667596
      2500  1244.0265802171075 -333.20560627257049 10.130592536991198 -323.07501373557932 19994.656524804876
      2600  1261.3190099677431 -333.34626145855839 10.271411521540276 -323.07484993701809 21368.450590957123
      2700  1336.6876643300593 -333.96057447606756 10.885167802593932 -323.07540667347365 17996.259772857109
      2800  1553.822074969341 -335.7287769784968 12.653377803028487 -323.07539917546831 17546.651737964832
      2900  1329.7186566759449 -333.90360647221934 10.828416461381684 -323.07519001083767 16797.201494711157
      3000  1384.4556915650376 -334.34946480783213 11.274161436579638 -323.07530337125252 18757.009402018019
      3100  1364.1768070028936 -334.18435265052375 11.109022588366356 -323.07533006215738 15252.314605443709
      3200  1405.4695281180504 -334.52078158133548 11.445285284850108 -323.07549629648537 17912.545478290864
      3300  1455.5340808148824 -334.92821943083425 11.852980419330125 -323.0752390115041 17790.823274995593
      3400  1306.3425701238677 -333.71313447314924 10.63805589213468 -323.07507858101457 17748.229339132995
      3500  1253.0120569362834 -333.27901481737774 10.203764770478932 -323.07525004689882 17550.994687711052
      3600  1630.0120945967496 -336.34925264810198 13.273822781057763 -323.07542986704419 20252.934326424278
      3700  1250.4238478651139 -333.25743187076159 10.182687976849662 -323.07474389391194 17047.24233208214
      3800  1285.9338088240825 -333.54692809250889 10.4718594071072 -323.07506868540167 19644.336847375056
      3900  1523.3695400631661 -335.48089569616695 12.405390961140334 -323.07550473502664 19937.684216109647
      4000  1456.7060184877939 -334.93792652685045 11.862523963842611 -323.07540256300786 16180.493848386423
      4100  1370.7653682118453 -334.23790379472996 11.162675806130615 -323.07522798859935 18088.089481779105
      4200  1485.5821985098075 -335.17283110376655 12.09767393449418 -323.07515716927236 20712.393475066328
      4300  1229.172374524951 -333.08509240720309 10.009628959748637 -323.07546344745447 15573.232036441808
      4400  1407.0523953744564 -334.53328028450613 11.458175188868072 -323.07510509563804 17387.383588823439
      4500  1417.541094754893 -334.61851548181761 11.543588749443002 -323.07492673237459 21931.119716788977
      4600  1355.055561113378 -334.10983031996051 11.03474473369201 -323.07508558626847 19162.127543872662
      4700  1296.2924234379807 -333.63125163864117 10.556213636807671 -323.07503800183349 18611.687160254791
      4800  1403.2744116188821 -334.50250160481477 11.427409597000722 -323.07509200781402 21314.820470792532
      4900  1279.2493265120611 -333.49268226271465 10.417425066474385 -323.07525719624027 16755.037579772892
      5000  1531.5014509685539 -335.54684637994762 12.471612276054056 -323.07523410389359 17952.059230377887
      5100  1167.4862296437555 -332.58215291552625 9.5072946777430722 -323.07485823778319 20019.387183899016
      5200  1223.4403726188539 -333.03752528980641 9.9629510377047268 -323.07457425210168 20023.872151189586
      5300  1305.0198387474563 -333.70221887036274 10.627284375815488 -323.07493449454728 22771.43661311765
      5400  1427.0806270802511 -334.6964105152764 11.621272873334304 -323.07513764194209 19411.344101076062
      5500  1314.615369164027 -333.78047506897104 10.705424513954352 -323.07505055501667 19408.863916227405
      5600  1473.9303664313934 -335.07804452941508 12.002788531743978 -323.07525599767109 21542.81197189317
      5700  1260.5091494802668 -333.34012391072503 10.264816512445696 -323.07530739827934 20699.730714634064
      5800  1594.3295300702091 -336.05854508118654 12.983245772783397 -323.07529930840315 20088.317285587567
      5900  1235.4674566404167 -333.13581784729388 10.060892263051652 -323.07492558424224 16219.452240006161
      6000  1410.2034634540807 -334.55914554886084 11.483835562431331 -323.07530998642949 18226.643787715333
      6100  1343.1564910707798 -334.01286071120785 10.937845975990513 -323.07501473521734 20560.778081185872
      6200  1508.5967710195978 -335.36039669850891 12.285090554217076 -323.07530614429186 19447.777980080809
      6300  1371.936316092502 -334.24790265643549 11.172211290379606 -323.07569136605588 16776.040796370082
      6400  1437.4097639233416 -334.78052969399943 11.705387054076255 -323.07514263992317 20595.955659129802
      6500  1265.4119428070549 -333.3799218801197 10.304741866354211 -323.07518001376548 18590.757670734354
      6600  1423.863888938354 -334.67062029192203 11.595077722899438 -323.07554256902262 19842.611642263499
      6700  1572.4365217040452 -335.8806375768155 12.804962486321912 -323.07567509049358 19981.509347845193
      6800  1237.5025939599698 -333.1523660019796 10.077465178187934 -323.07490082379167 20651.813466953008
      6900  1336.7175595121614 -333.96060907644869 10.885411250695052 -323.07519782575366 18734.475290604198
      7000  1635.3030073388659 -336.39265355933463 13.316908742396146 -323.07574481693848 20119.386820328709
      7100  1474.6905704070227 -335.08465873816363 12.008979168539501 -323.07567956962413 18490.895568409243
      7200  1321.4099032625036 -333.83588279958661 10.760755049109273 -323.07512775047735 19649.563034804782
      7300  1362.6471213073121 -334.17151338310674 11.096565762492991 -323.07494762061373 24590.958624381976
      7400  1473.8978927503729 -335.07817206673309 12.002524085922781 -323.07564798081029 19957.234416268373
      7500  1342.3419663798925 -334.00627242247862 10.931212984472552 -323.07505943800606 20899.486150365788
      7600  1444.8228121756633 -334.84087044504088 11.765754390671443 -323.07511605436946 23950.747683178273
      7700  1377.407061309224 -334.29212158547972 11.216761697537814 -323.07535988794189 19978.212776471413
      7800  1394.7418232534781 -334.43346525317008 11.357925409612463 -323.07553984355764 18982.059968888603
      7900  1530.5872798757537 -335.53967129665023 12.464167825109417 -323.0755034715408 20593.998416926406
      8000  1353.2803103179197 -334.09543971679085 11.020288175652375 -323.0751515411385 18499.507026021223
      8100  1186.5466618379214 -332.73759308738607 9.6625111941814481 -323.07508189320464 17749.131811885811
      8200  1388.1689074261224 -334.37953894697569 11.304399598278705 -323.07513934869701 22091.062784930058
      8300  1368.7599985857514 -334.22129356158814 11.146345300905823 -323.07494826068233 21506.559637339975
      8400  1339.6895493428967 -333.98471571738469 10.909613320391992 -323.07510239699269 18185.628579763827
      8500  1397.2995070412353 -334.45401862679427 11.378753623980451 -323.07526500281381 21755.463071193743
      8600  1428.5142861197903 -334.70823451009687 11.632947716780182 -323.07528679331671 21755.541256771216
      8700  1381.9747469372708 -334.32940357036949 11.253958139053346 -323.07544543131615 18584.138808718315
      8800  1501.5712945068544 -335.30333094230002 12.227879365115003 -323.07545157718499 18919.476122344342
      8900  1551.4208019419782 -335.70945894807545 12.633823302347292 -323.07563564572814 20382.346253016272
      9000  1473.0943983581415 -335.07146066966004 11.99598091841905 -323.07547975124101 19909.047518072566
      9100  1265.5180770147199 -333.38064019153154 10.305606158507763 -323.07503403302377 19278.46233106979
      9200  1460.4663736798946 -334.96841719724853 11.893145999457703 -323.07527119779081 20852.520711525292
      9300  1507.0321437574764 -335.34794634713705 12.272349185570391 -323.07559716156663 17465.371142174419
      9400  1420.224792356579 -334.64100961255895 11.565443143334196 -323.07556646922473 18415.237919620442
      9500  1430.2889676108227 -334.72250238792765 11.64739963875234 -323.0751027491753 20884.69703229579
      9600  1483.2768432455243 -335.15425705886628 12.0789005294827 -323.07535652938355 18775.263317397999
      9700  1277.746698846501 -333.48017953003932 10.405188584668712 -323.07499094537059 17415.791717560023
      9800  1488.4600494167066 -335.19651317252016 12.121109394301572 -323.07540377821857 21556.534425112262
      9900  1370.7074418370385 -334.23730671735132 11.162204089119383 -323.07510262823195 19840.406101783188
     10000  1430.3926084311938 -334.72307119447606 11.648243626282893 -323.07482756819314 18665.691132459149
Loop time of 16.6909 on 1 procs for 10000 steps with 64 atoms

Performance: 25.882 ns/day, 0.927 hours/ns, 599.128 timesteps/s, 38.344 katom-step/s
99.9% CPU use with 1 MPI tasks x 1 OpenMP threads

MPI task timing breakdown:
Section |  min time  |  avg time  |  max time  |%varavg| %total
---------------------------------------------------------------
Pair    | 16.611     | 16.611     | 16.611     |   0.0 | 99.52
Neigh   | 0.046454   | 0.046454   | 0.046454   |   0.0 |  0.28
Comm    | 0.011452   | 0.011452   | 0.011452   |   0.0 |  0.07
Output  | 0.011288   | 0.011288   | 0.011288   |   0.0 |  0.07
Modify  | 0.0052805  | 0.0052805  | 0.0052805  |   0.0 |  0.03
Other   |            | 0.005046   |            |       |  0.03

Nlocal:             64 ave          64 max          64 min
Histogram: 1 0 0 0 0 0 0 0 0 0
Nghost:            363 ave         363 max         363 min
Histogram: 1 0 0 0 0 0 0 0 0 0
Neighs:            905 ave         905 max         905 min
Histogram: 1 0 0 0 0 0 0 0 0 0
FullNghs:         1810 ave        1810 max        1810 min
Histogram: 1 0 0 0 0 0 0 0 0 0

Total # of neighbors = 1810
Ave neighs/atom = 28.28125
Neighbor list builds = 693
Dangerous builds = 0
print "YE3T_NVE_END"
YE3T_NVE_END
Total wall time: 0:00:20
