LAMMPS (22 Jul 2025 - Update 4)
OMP_NUM_THREADS environment is not set. Defaulting to 1 thread.
  using 1 OpenMP thread(s) per MPI task
# 2000-step NVT preparation plus 10000-step NVE stability gate.
units metal
atom_style atomic
boundary p p p
atom_modify map yes sort 0 0.0
newton on
lattice diamond 5.4690000000000003
Lattice spacing in x,y,z = 5.469 5.469 5.469
region cell block 0 2 0 2 0 2 units lattice
create_box 1 cell
Created orthogonal box = (0 0 0) to (10.938 10.938 10.938)
  2 by 1 by 2 MPI processor grid
create_atoms 1 box
Created 64 atoms
  using lattice units in orthogonal box = (0 0 0) to (10.938 10.938 10.938)
  create_atoms CPU = 0.000 seconds
mass 1 28.0855
reset_atoms id sort yes
Resetting atom IDs ...
WARNING: Communication cutoff is 0.0. No ghost atoms will be generated. Energies and forces may be wrong and atoms may get lost. (src/comm_brick.cpp:212)
displace_atoms all random 0.01 0.01 0.01 77311 units box
Displacing atoms ...
velocity all create 1348 85230 mom yes rot no dist gaussian
neighbor 0.3 bin
neigh_modify every 1 delay 0 check yes
pair_style hybrid/overlay pace product zbl 1.6457950832211634 2.1943934442948843
ACE version: 2025.12.4p1
Product evaluator is used
pair_coeff * * pace models/ace_127/potential.yace Si
Loading models/ace_127/potential.yace
Total number of basis functions
	Si: 4 (r=1) 123 (r>1)
Mapping LAMMPS atom type #1(Si) -> ACE species type #0
pair_coeff * * zbl 14 14
timestep 0.0005
thermo 100
thermo_style custom step temp pe ke etotal press
thermo_modify format float %.17g
fix thermostat all nvt temp 1348 1348 0.05
run 2000
Neighbor list info ...
  update: every = 1 steps, delay = 0 steps, check = yes
  max neighbors/atom: 2000, page size: 100000
  master list distance cutoff = 5.0572724
  ghost atom cutoff = 5.0572724
  binsize = 2.5286362, bins = 5 5 5
  2 neighbor lists, perpetual/occasional/extra = 2 0 0
  (1) pair pace, perpetual
      attributes: full, newton on, cut 5.05727237329569
      pair build: full/bin/atomonly
      stencil: full/bin/3d
      bin: standard
  (2) pair zbl, perpetual, half/full from (1)
      attributes: half, newton on
      pair build: halffull/newton
      stencil: none
      bin: none
Per MPI rank memory allocation (min/avg/max) = 3.571 | 3.571 | 3.571 Mbytes
   Step          Temp          PotEng         KinEng         TotEng         Press     
         0  1348 -347.05312754735621 10.977288553979999 -336.07583899337624 2999.8125474835165
       100  459.35714914700191 -338.35072811436754 3.7407240174482697 -334.61000409691928 7241.6993485064168
       200  779.9177795327181 -338.52854723123522 6.351173972040062 -332.17737325919518 12330.842467796389
       300  1393.6430451683368 -339.90159457768306 11.348977632092149 -328.5526169455909 12981.476780524517
       400  1144.7168905529813 -334.66307392951774 9.3218750891801321 -325.3411988403376 16315.856898954571
       500  1006.6177570686114 -330.43969730536236 8.1972801060105986 -322.24241719935173 18034.203251913492
       600  1658.8072679595116 -334.63630320063317 13.50831308296052 -321.12799011767265 27853.10732624603
       700  1266.3416592799549 -334.36284983707009 10.312312909378257 -324.05053692769184 14368.682507189975
       800  1515.9507050890077 -336.66014940880564 12.344976501017413 -324.31517290778822 17985.728994951158
       900  1058.3528800832551 -333.65699896223032 8.6185793446659371 -325.03841961756439 20221.64232027157
      1000  1181.1903437405635 -334.57665617794135 9.6188926115838207 -324.95776356635753 20533.257752548936
      1100  1496.3141484869163 -336.23419766521198 12.185068379335132 -324.04912928587686 14497.729498085841
      1200  1402.8411214347987 -334.21081553220898 11.423881146423355 -322.78693438578563 18503.616860755701
      1300  1274.5308658574008 -332.50564941373921 10.379000805245301 -322.12664860849389 23209.939141880022
      1400  1552.1366888910547 -335.40456551717205 12.63965304835029 -322.76491246882176 19767.814602313938
      1500  1245.6243865335518 -335.29997656330357 10.143604095588366 -325.15637246771519 17433.003109767997
      1600  1268.4988482042475 -335.97209569731172 10.329879738226483 -325.64221595908521 19849.414669674487
      1700  1242.1413273147675 -335.59257401304421 10.115240188989556 -325.47733382405465 17047.667857272867
      1800  1364.7154322493423 -333.85717798590213 11.113408823346122 -322.74376916255602 19141.146575231269
      1900  1488.1859559666887 -333.60040800336327 12.118877344678721 -321.48153065868456 21621.506433711278
      2000  1250.2179866576867 -333.25593843419256 10.18101156892978 -323.0749268652628 20061.127233337287
Loop time of 1.06858 on 4 procs for 2000 steps with 64 atoms

Performance: 80.855 ns/day, 0.297 hours/ns, 1871.650 timesteps/s, 119.786 katom-step/s
91.7% CPU use with 4 MPI tasks x 1 OpenMP threads

MPI task timing breakdown:
Section |  min time  |  avg time  |  max time  |%varavg| %total
---------------------------------------------------------------
Pair    | 0.91355    | 0.92293    | 0.93653    |   0.9 | 86.37
Neigh   | 0.0023366  | 0.0023705  | 0.0024267  |   0.1 |  0.22
Comm    | 0.12422    | 0.13794    | 0.14758    |   2.4 | 12.91
Output  | 0.00022335 | 0.0002409  | 0.00028677 |   0.0 |  0.02
Modify  | 0.0031097  | 0.0033284  | 0.0034678  |   0.2 |  0.31
Other   |            | 0.001767   |            |       |  0.17

Nlocal:             16 ave          19 max          13 min
Histogram: 1 1 0 0 0 0 0 0 1 1
Nghost:            215 ave         218 max         212 min
Histogram: 1 1 0 0 0 0 0 0 1 1
Neighs:         224.75 ave         261 max         179 min
Histogram: 1 0 0 1 0 0 0 0 0 2
FullNghs:        449.5 ave         538 max         363 min
Histogram: 1 1 0 0 0 0 0 0 1 1

Total # of neighbors = 1798
Ave neighs/atom = 28.09375
Neighbor list builds = 124
Dangerous builds = 0
unfix thermostat
reset_timestep 0
fix integrate all nve
dump trajectory all custom 100 trajectory.ace_127.lammpstrj id type x y z vx vy vz fx fy fz
dump_modify trajectory sort id
print "YE3T_NVE_BEGIN"
YE3T_NVE_BEGIN
run 10000
Per MPI rank memory allocation (min/avg/max) = 3.587 | 3.587 | 3.587 Mbytes
   Step          Temp          PotEng         KinEng         TotEng         Press     
         0  1250.2179866576867 -333.25593843419244 10.18101156892978 -323.07492686526268 20061.127233337702
       100  1237.239685405649 -333.15031473795409 10.07532421152318 -323.07499052643089 21260.222578411918
       200  1437.7442989507233 -334.78309026609031 11.708111302983513 -323.07497896310679 18596.356856124516
       300  1267.0051659859121 -333.39314051647057 10.317716102678547 -323.07542441379201 15841.533030546065
       400  1453.612396334343 -334.91262763807623 11.837331394810402 -323.07529624326583 17299.843968662692
       500  1416.4742283469311 -334.61004494097688 11.534900841127907 -323.07514409984896 20785.489948024002
       600  1326.1398042257176 -333.87474554326127 10.799272473222736 -323.07547307003853 18671.354360201636
       700  1426.074029545385 -334.6886919341822 11.613075757905557 -323.07561617627664 16516.68473960257
       800  1601.1471747705036 -336.11443030595024 13.038764506562066 -323.07566579938816 20380.602711700478
       900  1375.1896470504637 -334.27417938441852 11.19870443035523 -323.07547495406328 17781.720000479869
      1000  1415.012755172077 -334.59840317996623 11.522999496354707 -323.07540368361151 19204.322297065213
      1100  1348.8825068534529 -334.05949512522926 10.984475150701972 -323.07501997452727 20229.827815731853
      1200  1515.6452408904704 -335.41844171054163 12.342488987181914 -323.07595272335971 17018.11669866279
      1300  1391.4049022074742 -334.40631084157133 11.330751563022082 -323.07555927854924 16482.699145005754
      1400  1597.5146131156002 -336.08422087499412 13.009183143449308 -323.0750377315448 21645.359229398357
      1500  1266.9401539077942 -333.39223806529833 10.317186684027959 -323.07505138127038 18240.16703010878
      1600  1524.6909505829688 -335.49181953251207 12.41615172121017 -323.07566781130191 19449.577727032894
      1700  1344.6657270730359 -334.02535701219364 10.950136272053436 -323.0752207401402 20581.463059230493
      1800  1432.8769733775273 -334.74358261875057 11.668474776794239 -323.07510784195631 21126.658505805044
      1900  1306.4119588144358 -333.71375931027546 10.638620951243544 -323.07513835903194 18999.39996136941
      2000  1536.3035370947239 -335.58605221179607 12.510717532039244 -323.07533467975685 20684.538578585853
      2100  1158.202602862887 -332.50674507805121 9.4316944922823538 -323.07505058576885 18985.915217351703
      2200  1435.7639458867438 -334.76734198234061 11.691984517358838 -323.07535746498178 20913.959218109325
      2300  1401.0515963989974 -334.48472960808851 11.409308347690001 -323.07542126039851 17963.52142436026
      2400  1532.361855329895 -335.55463396125242 12.478618883581909 -323.07601507767049 18461.776677663212
      2500  1244.0265802172323 -333.20560627257157 10.130592536992216 -323.07501373557938 19994.65652480449
      2600  1261.3190099677211 -333.34626145855799 10.271411521540097 -323.07484993701792 21368.45059095995
      2700  1336.6876643302351 -333.96057447606904 10.885167802595364 -323.07540667347365 17996.259772854795
      2800  1553.8220749694738 -335.72877697849668 12.653377803029567 -323.07539917546711 17546.65173796552
      2900  1329.7186566760795 -333.90360647221979 10.828416461382782 -323.07519001083699 16797.201494711717
      3000  1384.4556915651933 -334.34946480783344 11.274161436580906 -323.07530337125252 18757.009402022308
      3100  1364.1768070029996 -334.18435265052312 11.109022588367219 -323.0753300621559 15252.314605450316
      3200  1405.4695281181532 -334.52078158133611 11.445285284850947 -323.07549629648514 17912.545478294727
      3300  1455.5340808150329 -334.92821943083561 11.852980419331351 -323.07523901150427 17790.82327499583
      3400  1306.3425701238712 -333.71313447314913 10.638055892134707 -323.0750785810144 17748.229339132129
      3500  1253.0120569363403 -333.27901481737695 10.203764770479395 -323.07525004689757 17550.994687704762
      3600  1630.0120945968285 -336.34925264810153 13.273822781058406 -323.07542986704311 20252.934326422477
      3700  1250.4238478652162 -333.25743187076074 10.182687976850495 -323.07474389391024 17047.242332085374
      3800  1285.933808823451 -333.54692809250361 10.471859407102059 -323.07506868540156 19644.336847381062
      3900  1523.3695400631973 -335.48089569616712 12.405390961140588 -323.07550473502653 19937.684216113525
      4000  1456.7060184884006 -334.93792652685488 11.862523963847551 -323.07540256300734 16180.493848392012
      4100  1370.7653682117834 -334.23790379472928 11.162675806130112 -323.07522798859918 18088.089481784686
      4200  1485.5821985100515 -335.17283110376769 12.097673934496166 -323.07515716927151 20712.393475064164
      4300  1229.1723745249883 -333.08509240720286 10.009628959748941 -323.0754634474539 15573.232036442549
      4400  1407.0523953742374 -334.53328028450323 11.458175188866289 -323.07510509563696 17387.383588824625
      4500  1417.5410947546345 -334.61851548181505 11.543588749440897 -323.07492673237414 21931.119716785364
      4600  1355.055561113174 -334.10983031995954 11.034744733690349 -323.07508558626921 19162.127543855844
      4700  1296.2924234376267 -333.63125163863833 10.556213636804788 -323.07503800183355 18611.687160254314
      4800  1403.2744116199758 -334.50250160482398 11.427409597009628 -323.07509200781436 21314.820470786002
      4900  1279.2493265119285 -333.49268226271363 10.417425066473307 -323.07525719624033 16755.037579752323
      5000  1531.5014509690614 -335.54684637995024 12.47161227605819 -323.07523410389206 17952.059230378389
      5100  1167.4862296433525 -332.58215291552295 9.5072946777397913 -323.07485823778319 20019.387183883398
      5200  1223.4403726184707 -333.037525289803 9.9629510377016057 -323.0745742521014 20023.872151176744
      5300  1305.0198387470075 -333.70221887035785 10.627284375811833 -323.07493449454603 22771.436613101134
      5400  1427.0806270805742 -334.69641051527799 11.621272873336935 -323.07513764194107 19411.344101098803
      5500  1314.6153691626721 -333.78047506896007 10.705424513943317 -323.07505055501673 19408.863916226874
      5600  1473.9303664321105 -335.07804452942173 12.002788531749818 -323.07525599767189 21542.811971882678
      5700  1260.5091494802382 -333.3401239107248 10.264816512445462 -323.07530739827934 20699.730714632253
      5800  1594.3295300704542 -336.05854508118864 12.983245772785393 -323.07529930840326 20088.317285587451
      5900  1235.4674566398605 -333.1358178472891 10.060892263047124 -323.07492558424195 16219.452239997599
      6000  1410.2034634539916 -334.55914554886067 11.483835562430604 -323.07530998643006 18226.643787722391
      6100  1343.1564910709856 -334.01286071120899 10.937845975992188 -323.07501473521683 20560.778081180892
      6200  1508.5967710201101 -335.36039669851436 12.285090554221247 -323.07530614429311 19447.777980069532
      6300  1371.9363160927719 -334.24790265643782 11.172211290381805 -323.07569136605599 16776.040796373523
      6400  1437.4097639217791 -334.78052969398618 11.705387054063531 -323.07514263992266 20595.955659127507
      6500  1265.4119428049453 -333.3799218801023 10.304741866337032 -323.07518001376525 18590.757670737687
      6600  1423.8638889395456 -334.67062029193215 11.595077722909142 -323.07554256902301 19842.611642261476
      6700  1572.436521705805 -335.88063757682858 12.804962486336244 -323.07567509049233 19981.509347809817
      6800  1237.5025939593957 -333.15236600197522 10.077465178183258 -323.07490082379195 20651.813466935364
      6900  1336.7175595110305 -333.96060907643948 10.885411250685841 -323.07519782575366 18734.47529058277
      7000  1635.3030073393184 -336.39265355933799 13.31690874239983 -323.07574481693814 20119.3868203159
      7100  1474.6905704061373 -335.08465873815692 12.00897916853229 -323.07567956962464 18490.895568364798
      7200  1321.409903263763 -333.83588279959622 10.760755049119529 -323.07512775047667 19649.563034763283
      7300  1362.6471213064804 -334.17151338309901 11.096565762486218 -323.07494762061282 24590.958624397295
      7400  1473.8978927486155 -335.07817206671859 12.002524085908471 -323.07564798081012 19957.23441628764
      7500  1342.3419663783209 -334.00627242246617 10.931212984459753 -323.07505943800641 20899.48615036971
      7600  1444.8228121781653 -334.84087044506151 11.765754390691818 -323.07511605436969 23950.747683136513
      7700  1377.4070613075469 -334.2921215854654 11.216761697524156 -323.07535988794126 19978.212776438741
      7800  1394.7418232484163 -334.43346525312677 11.357925409571243 -323.07553984355553 18982.059968892223
      7900  1530.5872798747553 -335.53967129664187 12.464167825101287 -323.07550347154057 20593.998416833438
      8000  1353.2803103227079 -334.09543971682922 11.020288175691368 -323.07515154113787 18499.507025981104
      8100  1186.5466618423748 -332.73759308742268 9.6625111942177142 -323.07508189320498 17749.131811817228
      8200  1388.168907421928 -334.37953894694175 11.304399598244549 -323.07513934869718 22091.062784966438
      8300  1368.7599985831155 -334.22129356156643 11.146345300884358 -323.07494826068205 21506.55963726687
      8400  1339.6895493463273 -333.98471571741231 10.909613320419929 -323.07510239699241 18185.628579707722
      8500  1397.29950704521 -334.45401862682547 11.37875362401282 -323.07526500281267 21755.463071117414
      8600  1428.5142861187837 -334.70823451008749 11.632947716771985 -323.07528679331551 21755.541256762524
      8700  1381.9747469378287 -334.32940357037353 11.25395813905789 -323.07544543131564 18584.138808662021
      8800  1501.5712945040357 -335.30333094227615 12.227879365092049 -323.07545157718408 18919.476122410248
      8900  1551.4208019398927 -335.70945894805766 12.63382330233031 -323.07563564572735 20382.346252934647
      9000  1473.0943983553145 -335.07146066963566 11.995980918396031 -323.07547975123964 19909.047518158965
      9100  1265.5180770099444 -333.38064019149112 10.305606158468875 -323.07503403302223 19278.4623311219
      9200  1460.4663736777777 -334.96841719722937 11.893145999440465 -323.07527119778888 20852.520711592897
      9300  1507.0321437544412 -335.34794634711108 12.272349185545675 -323.07559716156538 17465.371142132299
      9400  1420.2247923548321 -334.6410096125436 11.565443143319971 -323.07556646922365 18415.237919636656
      9500  1430.2889676105435 -334.72250238792321 11.647399638750066 -323.07510274917314 20884.69703224003
      9600  1483.2768432322227 -335.15425705875731 12.078900529374382 -323.07535652938293 18775.263317451918
      9700  1277.7466988472929 -333.48017953004523 10.405188584675162 -323.07499094537008 17415.791717380853
      9800  1488.4600494233407 -335.19651317257456 12.121109394355596 -323.07540377821897 21556.534425139125
      9900  1370.7074418328157 -334.23730671731516 11.162204089084996 -323.07510262823018 19840.406101763958
     10000  1430.3926084176931 -334.72307119436528 11.648243626172951 -323.07482756819235 18665.691132311727
Loop time of 5.40401 on 4 procs for 10000 steps with 64 atoms

Performance: 79.941 ns/day, 0.300 hours/ns, 1850.477 timesteps/s, 118.431 katom-step/s
91.4% CPU use with 4 MPI tasks x 1 OpenMP threads

MPI task timing breakdown:
Section |  min time  |  avg time  |  max time  |%varavg| %total
---------------------------------------------------------------
Pair    | 4.5666     | 4.6345     | 4.689      |   2.2 | 85.76
Neigh   | 0.013185   | 0.013341   | 0.013425   |   0.1 |  0.25
Comm    | 0.67344    | 0.72784    | 0.79479    |   5.5 | 13.47
Output  | 0.0078457  | 0.0094431  | 0.011021   |   1.5 |  0.17
Modify  | 0.0023927  | 0.0024562  | 0.0025089  |   0.1 |  0.05
Other   |            | 0.01645    |            |       |  0.30

Nlocal:             16 ave          17 max          14 min
Histogram: 1 0 0 0 0 0 1 0 0 2
Nghost:            215 ave         217 max         214 min
Histogram: 2 0 0 1 0 0 0 0 0 1
Neighs:         226.25 ave         247 max         201 min
Histogram: 1 0 0 0 1 0 0 1 0 1
FullNghs:        452.5 ave         481 max         395 min
Histogram: 1 0 0 0 0 0 1 0 0 2

Total # of neighbors = 1810
Ave neighs/atom = 28.28125
Neighbor list builds = 693
Dangerous builds = 0
print "YE3T_NVE_END"
YE3T_NVE_END
Total wall time: 0:00:06
