LAMMPS (22 Jul 2025 - Update 4)
OMP_NUM_THREADS environment is not set. Defaulting to 1 thread.
  using 1 OpenMP thread(s) per MPI task
# 2000-step NVT preparation plus 10000-step NVE stability gate.
units metal
atom_style atomic
boundary p p p
atom_modify map yes sort 0 0.0
newton on
lattice diamond 5.4690000000000003
Lattice spacing in x,y,z = 5.469 5.469 5.469
region cell block 0 2 0 2 0 2 units lattice
create_box 1 cell
Created orthogonal box = (0 0 0) to (10.938 10.938 10.938)
  1 by 1 by 1 MPI processor grid
create_atoms 1 box
Created 64 atoms
  using lattice units in orthogonal box = (0 0 0) to (10.938 10.938 10.938)
  create_atoms CPU = 0.000 seconds
mass 1 28.0855
reset_atoms id sort yes
Resetting atom IDs ...
WARNING: Communication cutoff is 0.0. No ghost atoms will be generated. Energies and forces may be wrong and atoms may get lost. (src/comm_brick.cpp:212)
displace_atoms all random 0.01 0.01 0.01 78320 units box
Displacing atoms ...
velocity all create 1348 86239 mom yes rot no dist gaussian
neighbor 0.3 bin
neigh_modify every 1 delay 0 check yes
pair_style hybrid/overlay ye3t model_family tagged_cauchy block_policy direct zbl 1.6457950832211634 2.1943934442948843
YE3T configuration: model_family tagged_cauchy, source_realization model_default, chunksize 4096, block_policy direct, plan none, auto_replay none
pair_coeff * * ye3t models/ye3t_tagged_127/model.ye3t.json Si
YE3T CPU dispatch: PACE-compatible spline/half-complex source with split-real harmonics, exact signed-m expansion/collapse, tiled split-real symmetric-power forward/adjoint, source_model 41cddb3756766f9397286f2e3fde3931eb8e73e99671432a44f04aa41c6693bb, direct_logical_plan 899c980843fe5008235ed1aba70d9a5e7f59a0db9ed33bf54cdad82472521b1b
YE3T CPU source schedule: complete environments in 8/16-center batches, soft cache target 1048576 bytes (992 edges), no source-table replay; chunksize is an outer packing limit, not a memory limit
YE3T self-contained composite: ordinary model 9c35829403ff4200ab43a8693efc26a956e39c759b0b2722e854bd0e70c8c291, tagged model 7aa30505016f886b5404dbb8878f9d99dc389ff132fd676e078e0abed18b16eb, manifest 41cddb3756766f9397286f2e3fde3931eb8e73e99671432a44f04aa41c6693bb, ordinary evaluator compiled_direct, tagged evaluator compiled_direct
YE3T tagged-Cauchy CPU dispatch: real-arithmetic exact moment reduction, evaluator compiled_direct, portfolio 16f871c6ac476d106ade3ebaa518e2c6d343486ff4ac99236197faced2f3a326, tag_count 2, feature_count 69, model_self_hash 899c980843fe5008235ed1aba70d9a5e7f59a0db9ed33bf54cdad82472521b1b
Loaded YE3T tagged-Cauchy potential models/ye3t_tagged_127/model.ye3t.json
pair_coeff * * zbl 14 14
timestep 0.0005
thermo 100
thermo_style custom step temp pe ke etotal press
thermo_modify format float %.17g
fix thermostat all nvt temp 1348 1348 0.05
run 2000
Neighbor list info ...
  update: every = 1 steps, delay = 0 steps, check = yes
  max neighbors/atom: 2000, page size: 100000
  master list distance cutoff = 5.0572724
  ghost atom cutoff = 5.0572724
  binsize = 2.5286362, bins = 5 5 5
  2 neighbor lists, perpetual/occasional/extra = 2 0 0
  (1) pair ye3t, perpetual
      attributes: full, newton on, cut 5.05727237329569
      pair build: full/bin/atomonly
      stencil: full/bin/3d
      bin: standard
  (2) pair zbl, perpetual, half/full from (1)
      attributes: half, newton on
      pair build: halffull/newton
      stencil: none
      bin: none
Per MPI rank memory allocation (min/avg/max) = 9.07 | 9.07 | 9.07 Mbytes
   Step          Temp          PotEng         KinEng         TotEng         Press     
         0  1348.0000000000002 -347.15090531079159 10.977288553980001 -336.17361675681161 2520.4922097126323
       100  493.04068767307859 -338.69902226108502 4.0150221791098764 -334.68400008197517 6259.3533449136712
       200  863.85492250676452 -339.2812194781215 7.0347067901578528 -332.24651268796367 12089.712931384396
       300  1286.9903484038603 -339.11120258755869 10.480463220041861 -328.63073936751681 10145.112768251382
       400  1209.9691628101716 -335.19071201992301 9.8532497341133976 -325.33746228580964 12633.473519489637
       500  1259.638145542209 -332.3535263166026 10.257723588439974 -322.0958027281626 16937.676571110132
       600  1864.1472258575941 -336.66442602182502 15.180476265089123 -321.48394975673591 24235.159907073041
       700  1125.5345426080507 -333.63671496289913 9.1656657653415952 -324.47104919755753 14058.636538060078
       800  1682.2039998253681 -337.42277888565121 13.698841775031445 -323.72393711061977 18831.113984672618
       900  1359.5876353501912 -335.2614275862669 11.07165117779109 -324.18977640847584 17221.801291541131
      1000  999.76775557264568 -333.31412507254771 8.1414978782536185 -325.17262719429408 16044.539258879719
      1100  1418.9489076467439 -335.45957149041897 11.555053117650612 -323.90451837276834 18050.523488576328
      1200  1441.1394844655761 -334.98968127947109 11.735759619816474 -323.25392165965462 20066.719781633303
      1300  1181.8337612749854 -333.68095940414366 9.6241322109428999 -324.05682719320077 18188.623867228536
      1400  1463.2891427987911 -335.18189578426944 11.916132906831139 -323.26576287743831 17559.220766875449
      1500  1538.2515400391999 -334.98676091004745 12.526580878052238 -322.46018003199521 20966.390304853561
      1600  1250.0219694194036 -333.30418763404975 10.179415324281273 -323.1247723097685 13990.988446062725
      1700  1445.0953512153785 -335.6423354533498 11.767973782126322 -323.87436167122348 17153.738397188321
      1800  1252.445662658464 -335.9524787874646 10.19915240147081 -325.75332638599377 15661.587338714397
      1900  1243.7960603952374 -336.65536893577985 10.12871532437838 -326.52665361140146 15624.628354458066
      2000  1182.1889013451068 -334.29694039755788 9.6270242547313298 -324.66991614282654 18963.304478343554
Loop time of 3.04817 on 1 procs for 2000 steps with 64 atoms

Performance: 28.345 ns/day, 0.847 hours/ns, 656.132 timesteps/s, 41.992 katom-step/s
100.0% CPU use with 1 MPI tasks x 1 OpenMP threads

MPI task timing breakdown:
Section |  min time  |  avg time  |  max time  |%varavg| %total
---------------------------------------------------------------
Pair    | 3.0318     | 3.0318     | 3.0318     |   0.0 | 99.46
Neigh   | 0.0093136  | 0.0093136  | 0.0093136  |   0.0 |  0.31
Comm    | 0.0026511  | 0.0026511  | 0.0026511  |   0.0 |  0.09
Output  | 0.0003025  | 0.0003025  | 0.0003025  |   0.0 |  0.01
Modify  | 0.0030828  | 0.0030828  | 0.0030828  |   0.0 |  0.10
Other   |            | 0.0009777  |            |       |  0.03

Nlocal:             64 ave          64 max          64 min
Histogram: 1 0 0 0 0 0 0 0 0 0
Nghost:            367 ave         367 max         367 min
Histogram: 1 0 0 0 0 0 0 0 0 0
Neighs:            892 ave         892 max         892 min
Histogram: 1 0 0 0 0 0 0 0 0 0
FullNghs:         1784 ave        1784 max        1784 min
Histogram: 1 0 0 0 0 0 0 0 0 0

Total # of neighbors = 1784
Ave neighs/atom = 27.875
Neighbor list builds = 131
Dangerous builds = 0
unfix thermostat
reset_timestep 0
fix integrate all nve
dump trajectory all custom 100 trajectory.ye3t_tagged_127.lammpstrj id type x y z vx vy vz fx fy fz
dump_modify trajectory sort id
print "YE3T_NVE_BEGIN"
YE3T_NVE_BEGIN
run 10000
Per MPI rank memory allocation (min/avg/max) = 9.142 | 9.142 | 9.142 Mbytes
   Step          Temp          PotEng         KinEng         TotEng         Press     
         0  1182.1889013451068 -334.29694039755765 9.6270242547313298 -324.66991614282631 18963.30447834263
       100  1246.1411296210797 -334.81803904010638 10.147812135632927 -324.67022690447345 21407.19871075626
       200  1171.7575685448239 -334.21211668404686 9.5420778525419365 -324.67003883150494 18178.073263746679
       300  1124.2864237777339 -333.82514177438225 9.155501848019604 -324.66963992636266 20218.348347457511
       400  1206.7224380640714 -334.49722820391418 9.8268103910916693 -324.67041781282251 14021.002923475655
       500  1473.4396392276376 -336.66964600250333 11.998792349164663 -324.67085365333867 17464.704875906053
       600  1199.8470911480781 -334.44109006319894 9.7708217657166134 -324.67026829748232 16035.567378646172
       700  1141.9505249619901 -333.96935504490131 9.2993474976830175 -324.67000754721829 17007.167119887963
       800  1306.6648804542065 -335.31100301008803 10.640680590576858 -324.67032241951119 17236.664881337292
       900  1160.5083792934563 -334.12051310531007 9.4504713270147906 -324.67004177829529 15658.767734943855
      1000  1320.8007863163477 -335.42615129732218 10.755794772788002 -324.67035652453416 17237.462849427324
      1100  1266.121144192341 -334.98085828531759 10.310517169209678 -324.67034111610792 18109.581841690659
      1200  1269.6286676119103 -335.00962002689192 10.339080297315355 -324.67053972957655 18724.968048342118
      1300  1194.8428505649397 -334.4001261756477 9.7300702873229579 -324.67005588832473 15138.23445786304
      1400  1269.7406335925034 -335.01018469214381 10.339992079865208 -324.67019261227858 17862.346010008077
      1500  1272.2512812223492 -335.03071952270716 10.360437260495909 -324.67028226221123 15752.336759640653
      1600  1473.0238255252052 -336.66639197219536 11.995406216378091 -324.67098575581724 13873.105563716954
      1700  1156.1253345166615 -334.08512977111627 9.4147784878012217 -324.67035128331503 17716.581990902312
      1800  1334.8349357659624 -335.54052247187337 10.870080312934961 -324.67044215893839 20646.920963662047
      1900  1394.1720843689004 -336.02415502032051 11.353285804170007 -324.67086921615049 14717.373011751521
      2000  1346.4502713025022 -335.6352448535531 10.964668510142598 -324.67057634341052 14994.546033889588
      2100  1231.3635417209716 -334.6976504574011 10.02747248688568 -324.6701779705154 14320.114212646838
      2200  1339.2647140345834 -335.57653511519129 10.906153721158109 -324.6703813940332 17910.366887427397
      2300  1196.4882597136195 -334.41402745387109 9.7434694943069466 -324.67055795956412 16039.483759337578
      2400  1446.1208255838903 -336.44676200118533 11.776324618957082 -324.67043738222827 16628.993065259689
      2500  1193.0185929301495 -334.38541542931267 9.7152146475203676 -324.67020078179229 12611.05267513163
      2600  1402.2800627597373 -336.09009025949189 11.419312227304763 -324.67077803218712 17247.094966278524
      2700  1335.6516900771892 -335.54726158467054 10.87673146111897 -324.67053012355154 13572.430420675964
      2800  1371.319325314046 -335.83767413516188 11.167186894377933 -324.67048724078393 15910.570136218275
      2900  1177.1228147419024 -334.25598454619171 9.5857691401298251 -324.67021540606191 15946.49633997206
      3000  1607.5580229836114 -337.76190425046696 13.090970538246822 -324.67093371222012 16932.210337111632
      3100  1218.3623883957439 -334.59205981610302 9.9215990361545501 -324.67046077994848 14128.574595158128
      3200  1188.9128348849292 -334.35176670859443 9.6817798620639817 -324.66998684653043 17346.554579431726
      3300  1264.6148924727145 -334.96872878629529 10.298251175321496 -324.67047761097376 17688.522968837333
      3400  1449.8881668330896 -336.47781609243964 11.807003544753648 -324.67081254768601 15323.856162883239
      3500  1472.6306625230627 -336.66305689131127 11.992204537058161 -324.6708523542531 12917.404124382903
      3600  1259.4086867899985 -334.92585997544626 10.255855016530292 -324.67000495891597 16310.873615167964
      3700  1312.6398529826845 -335.35974341243008 10.68933711694719 -324.67040629548291 15680.371973329819
      3800  1257.5212905644075 -334.91083260964763 10.240485214613374 -324.67034739503424 15841.727853183807
      3900  1402.6419454240154 -336.09274834944642 11.422259178661189 -324.67048917078523 17706.820914491174
      4000  1275.4792792150722 -335.05721601623361 10.386724104277651 -324.67049191195593 15427.339558640244
      4100  1356.32236620912 -335.71533570671363 11.045060820544839 -324.67027488616878 18269.41858095691
      4200  1313.9049095658791 -335.3703745920713 10.699638964981936 -324.67073562708936 14068.787032303471
      4300  1419.9623969227391 -336.23374440715099 11.563306355209191 -324.6704380519418 15595.393145881117
      4400  1225.789129524974 -334.65232547259973 9.9820778791747813 -324.67024759342496 14575.14509968363
      4500  1286.016089982676 -335.1429661119659 10.472529454600107 -324.67043665736583 16202.459591645356
      4600  1342.8768678200065 -335.60622720779105 10.935568895048272 -324.67065831274277 17835.103347812299
      4700  1274.1492161116207 -335.04601282592949 10.375892882852138 -324.67011994307734 17920.83914700105
      4800  1297.2092866798318 -335.2342925265728 10.563680010969643 -324.67061251560318 14794.839279010166
      4900  1374.539632009622 -335.86425085691678 11.193411104934054 -324.67083975198273 14903.966318104771
      5000  1081.9302787509175 -333.48048653539325 8.8105792768077436 -324.66990725858551 18034.727966606897
      5100  1277.5625082085021 -335.07417830853177 10.403688648628464 -324.6704896599033 18524.360130829205
      5200  1565.4939627840272 -337.41945222761052 12.748426527443542 -324.67102570016698 14549.940390290238
      5300  1405.4381591833144 -336.11590633054914 11.445029835407803 -324.67087649514133 16313.944615834132
      5400  1138.5494366116866 -333.94155765452939 9.2716511117639797 -324.66990654276543 21827.135066984349
      5500  1221.4845768219786 -334.6173404011015 9.9470242314621728 -324.67031616963931 15071.902709737089
      5600  1233.7208817992371 -334.71713251398455 10.046669224466527 -324.67046328951801 15764.100110890689
      5700  1357.8422215581313 -335.7276097596685 11.057437594080749 -324.67017216558776 19200.988647344995
      5800  1222.3900500316097 -334.62485616754037 9.9543978521595164 -324.67045831538087 19742.231850411667
      5900  1195.5657845628921 -334.40649579022022 9.7359574201872068 -324.670538370033 17213.884169743254
      6000  1438.6671373465297 -336.38647372353307 11.715626335149283 -324.67084738838378 17752.615888701832
      6100  1334.0499223075126 -335.53440778018211 10.863687642866592 -324.67072013731553 15026.550752253856
      6200  1339.1791386004857 -335.5762260112536 10.905456847097854 -324.67076916415573 18054.636281719911
      6300  1265.5911335719995 -334.97673062194127 10.306201086482554 -324.67052953545874 19566.475982660693
      6400  1274.0277969303534 -335.0455393146097 10.374904119210626 -324.67063519539909 16874.702988847421
      6500  1233.0947342713052 -334.71247407922709 10.041570261490659 -324.67090381773642 17839.141067041124
      6600  1466.463305900721 -336.6130013078797 11.941981352148114 -324.67101995573159 20318.593128851382
      6700  1218.6493214732054 -334.59474832934688 9.9239356438600232 -324.67081268548685 15821.921350719647
      6800  1408.4471061424506 -336.14023412535045 11.469532861382623 -324.67070126396783 20322.079025538151
      6900  1368.0441706820122 -335.81142023018731 11.140516035731984 -324.67090419445532 17776.979114894097
      7000  1373.9650819939163 -335.85968072166361 11.188732320578643 -324.67094840108496 15205.598054667322
      7100  1298.9974345663936 -335.2487846913985 10.578241595040843 -324.67054309635768 20264.127505335324
      7200  1357.8366952263871 -335.72820719540607 11.057392591010867 -324.67081460439522 19388.965075454151
      7300  1208.4117536574315 -334.51151039828721 9.8405671453402235 -324.67094325294698 15626.118769904911
      7400  1248.3195585828432 -334.83609765503178 10.165551930371521 -324.67054572466026 18892.401735254738
      7500  1185.757273672976 -334.32627289936761 9.6560828991757344 -324.67019000019189 22507.155827820741
      7600  1177.9046554233514 -334.26263181409519 9.5921359730404383 -324.67049584105473 16551.167883354043
      7700  1412.7673903064976 -336.1758336442997 11.504714616504238 -324.67111902779544 17088.055133286853
      7800  1372.0095160366623 -335.84377293530645 11.172807386009564 -324.67096554929691 15877.495239041298
      7900  1310.0776634198089 -335.33933191178039 10.668472210299059 -324.67085970148133 15881.167460598212
      8000  1218.7282250355083 -334.59521346493051 9.9245781862719937 -324.67063527865849 19022.499331625422
      8100  1222.5946569294654 -334.62659380401465 9.9560640457484606 -324.67052975826618 18859.164635609937
      8200  1310.0323923705359 -335.3392695796104 10.668103550528279 -324.67116602908214 15585.39799865844
      8300  1314.264655296744 -335.37334464001339 10.702568514458024 -324.67077612555534 14696.168463936989
      8400  1191.845277567307 -334.37624586794544 9.7056598839426673 -324.6705859840028 19437.651442241568
      8500  1278.8479833139104 -335.08491003789754 10.41415677263516 -324.67075326526236 18252.442604500116
      8600  1326.1505303536057 -335.47008133235346 10.79935982025604 -324.67072151209743 15702.256108179878
      8700  1284.8270114987909 -335.13348779862872 10.462846325793773 -324.67064147283497 15260.869353278698
      8800  1454.9613571201955 -336.51958322599222 11.848316507417454 -324.67126671857477 18439.86080072766
      8900  1197.3173384213201 -334.4204459507464 9.7502210048472957 -324.67022494589912 20121.734783902648
      9000  1187.6736118154861 -334.34226732432074 9.671688386384437 -324.67057893793628 18762.874546241845
      9100  1348.1178844779633 -335.64904989859161 10.978248533157032 -324.67080136543456 18982.745989398329
      9200  1168.7368687536173 -334.18791081518361 9.517479118682127 -324.67043169650151 21620.487906451483
      9300  1184.2698266306638 -334.31479120701653 9.6439700390924816 -324.67082116792403 21107.679699049833
      9400  1384.2757749582809 -335.94359201122103 11.27269630563897 -324.67089570558204 17953.534662380735
      9500  1321.4858305074724 -335.43226383850003 10.761373354211003 -324.67089048428903 18646.583214827071
      9600  1309.2836255765333 -335.33311174576266 10.66200605115335 -324.67110569460931 20150.131041195669
      9700  1320.6878360275678 -335.42544691142109 10.754874974633557 -324.67057193678755 21400.678285091821
      9800  1192.9383389149414 -334.38532801070915 9.7145611078448812 -324.67076690286427 18054.482193591459
      9900  1241.4081453071519 -334.77975987772749 10.109269602594763 -324.67049027513275 19247.935725404579
     10000  1353.9352157109233 -335.69631394091004 11.025621325114214 -324.67069261579582 17772.908751983021
Loop time of 15.1089 on 1 procs for 10000 steps with 64 atoms

Performance: 28.592 ns/day, 0.839 hours/ns, 661.860 timesteps/s, 42.359 katom-step/s
99.9% CPU use with 1 MPI tasks x 1 OpenMP threads

MPI task timing breakdown:
Section |  min time  |  avg time  |  max time  |%varavg| %total
---------------------------------------------------------------
Pair    | 15.023     | 15.023     | 15.023     |   0.0 | 99.43
Neigh   | 0.047728   | 0.047728   | 0.047728   |   0.0 |  0.32
Comm    | 0.013309   | 0.013309   | 0.013309   |   0.0 |  0.09
Output  | 0.011667   | 0.011667   | 0.011667   |   0.0 |  0.08
Modify  | 0.0064798  | 0.0064798  | 0.0064798  |   0.0 |  0.04
Other   |            | 0.006701   |            |       |  0.04

Nlocal:             64 ave          64 max          64 min
Histogram: 1 0 0 0 0 0 0 0 0 0
Nghost:            363 ave         363 max         363 min
Histogram: 1 0 0 0 0 0 0 0 0 0
Neighs:            895 ave         895 max         895 min
Histogram: 1 0 0 0 0 0 0 0 0 0
FullNghs:         1790 ave        1790 max        1790 min
Histogram: 1 0 0 0 0 0 0 0 0 0

Total # of neighbors = 1790
Ave neighs/atom = 27.96875
Neighbor list builds = 671
Dangerous builds = 0
print "YE3T_NVE_END"
YE3T_NVE_END
Total wall time: 0:00:18
