LAMMPS (22 Jul 2025 - Update 4)
OMP_NUM_THREADS environment is not set. Defaulting to 1 thread.
  using 1 OpenMP thread(s) per MPI task
# 2000-step NVT preparation plus 10000-step NVE stability gate.
units metal
atom_style atomic
boundary p p p
atom_modify map yes sort 0 0.0
newton on
lattice bcc 3.427
Lattice spacing in x,y,z = 3.427 3.427 3.427
region cell block 0 2 0 2 0 2 units lattice
create_box 1 cell
Created orthogonal box = (0 0 0) to (6.854 6.854 6.854)
  1 by 2 by 2 MPI processor grid
create_atoms 1 box
Created 16 atoms
  using lattice units in orthogonal box = (0 0 0) to (6.854 6.854 6.854)
  create_atoms CPU = 0.000 seconds
mass 1 6.9400000000000004
reset_atoms id sort yes
Resetting atom IDs ...
WARNING: Communication cutoff is 0.0. No ghost atoms will be generated. Energies and forces may be wrong and atoms may get lost. (src/comm_brick.cpp:212)
displace_atoms all random 0.01 0.01 0.01 78313 units box
Displacing atoms ...
velocity all create 362.92000000000002 86232 mom yes rot no dist gaussian
neighbor 0.3 bin
neigh_modify every 1 delay 0 check yes
pair_style hybrid/overlay ye3t model_family tagged_cauchy block_policy direct zbl 1.6007008523823156 2.1009198687517894
YE3T configuration: model_family tagged_cauchy, source_realization model_default, chunksize 4096, block_policy direct, plan none, auto_replay none
pair_coeff * * ye3t models/ye3t_tagged_127/model.ye3t.json Li
YE3T CPU dispatch: PACE-compatible spline/half-complex source with split-real harmonics, exact signed-m expansion/collapse, tiled split-real symmetric-power forward/adjoint, source_model c4534fa1616ccc905b59fd5db6c041e2b578d90d693391eae2b97e05a431c625, direct_logical_plan c5e8265064fb2c05af35b72beaf6874a7df567d5c1ea2173737415dbab261dda
YE3T CPU source schedule: complete environments in 8/16-center batches, soft cache target 1048576 bytes (992 edges), no source-table replay; chunksize is an outer packing limit, not a memory limit
YE3T self-contained composite: ordinary model 25b75de20d3742cac004efc0de2dae617f41d682260a62967c12b361ba1ed812, tagged model 649e0e23505d53bbcdc5cc20ed00d4758d2b894946599e465b8cd593e3557b19, manifest c4534fa1616ccc905b59fd5db6c041e2b578d90d693391eae2b97e05a431c625, ordinary evaluator compiled_direct, tagged evaluator compiled_direct
YE3T tagged-Cauchy CPU dispatch: real-arithmetic exact moment reduction, evaluator compiled_direct, portfolio 8f4c674fb263d222640d6677859ca568b542c914f6d722e34b1704aa0c184c57, tag_count 2, feature_count 69, model_self_hash c5e8265064fb2c05af35b72beaf6874a7df567d5c1ea2173737415dbab261dda
Loaded YE3T tagged-Cauchy potential models/ye3t_tagged_127/model.ye3t.json
pair_coeff * * zbl 3 3
timestep 0.0005
thermo 100
thermo_style custom step temp pe ke etotal press
thermo_modify format float %.17g
fix thermostat all nvt temp 362.92000000000002 362.92000000000002 0.05
run 2000
Neighbor list info ...
  update: every = 1 steps, delay = 0 steps, check = yes
  max neighbors/atom: 2000, page size: 100000
  master list distance cutoff = 5.5050358
  ghost atom cutoff = 5.5050358
  binsize = 2.7525179, bins = 3 3 3
  2 neighbor lists, perpetual/occasional/extra = 2 0 0
  (1) pair ye3t, perpetual
      attributes: full, newton on, cut 5.505035841991572
      pair build: full/bin/atomonly
      stencil: full/bin/3d
      bin: standard
  (2) pair zbl, perpetual, half/full from (1)
      attributes: half, newton on
      pair build: halffull/newton
      stencil: none
      bin: none
Per MPI rank memory allocation (min/avg/max) = 8.54 | 8.683 | 8.897 Mbytes
   Step          Temp          PotEng         KinEng         TotEng         Press     
         0  362.92000000000002 -30.380487262620179 0.70366637735100002 -29.67682088526918 3352.442657651738
       100  196.07814406294119 -29.960693677881423 0.38017633999360001 -29.580517337887823 4237.5327824647047
       200  297.93150671797429 -29.921299001048027 0.57766004637650747 -29.343638954671519 4944.911458613853
       300  375.10520059857913 -29.822023947372827 0.72729228929439638 -29.09473165807843 6415.3897456452278
       400  360.88096840281969 -29.635641760021343 0.69971289455233343 -28.935928865469009 7187.5734741172919
       500  491.94881148815165 -29.848939996531385 0.95384062058304231 -28.895099375948341 6555.4609494238957
       600  397.42177549838169 -29.716841928688254 0.77056194490617402 -28.94627998378208 6210.2178207229772
       700  364.55627226546471 -29.744724846609941 0.7068389492054018 -29.037885897404539 7557.5838006358063
       800  283.54247923573581 -29.737500016090408 0.54976112969506052 -29.187738886395348 5501.5302283421279
       900  431.48862408830962 -29.997411256771045 0.83661423173258098 -29.160797025038462 5752.1253709310531
      1000  339.81257178599412 -29.675802893927283 0.65886333452820767 -29.016939559399077 6573.6723062479878
      1100  473.18749755190362 -29.631179929302874 0.9174642681861932 -28.71371566111668 7286.1392465526887
      1200  444.84457852192253 -29.51390327870871 0.86251012083311396 -28.651393157875596 7138.957653155112
      1300  453.32395522346445 -29.770655825029465 0.87895080276237791 -28.891705022267086 6594.957122448689
      1400  350.50151798939805 -29.850609018121546 0.6795881555704455 -29.171020862551099 5788.1498983178899
      1500  310.40697053069033 -29.780077656566647 0.60184875029711637 -29.178228906269531 5579.7898608119131
      1600  465.50212205625758 -29.897479367574647 0.90256307692199333 -28.994916290652654 6202.6872258625253
      1700  451.92722264705151 -29.639657472837186 0.87624267493207753 -28.76341479790511 5723.4821249546148
      1800  625.04832931830674 -29.75354482714377 1.2119075651953812 -28.541637261948388 8112.4015428060693
      1900  249.23166315638383 -29.422968801078568 0.48323581377278002 -28.939732987305788 6158.7387841057644
      2000  399.10069142683938 -29.767747143522442 0.77381719865150278 -28.993929944870938 6372.5211514943776
Loop time of 0.329815 on 4 procs for 2000 steps with 16 atoms

Performance: 261.965 ns/day, 0.092 hours/ns, 6063.998 timesteps/s, 97.024 katom-step/s
80.7% CPU use with 4 MPI tasks x 1 OpenMP threads

MPI task timing breakdown:
Section |  min time  |  avg time  |  max time  |%varavg| %total
---------------------------------------------------------------
Pair    | 0.17416    | 0.21321    | 0.24795    |   7.0 | 64.65
Neigh   | 0.00071291 | 0.00083133 | 0.00095926 |   0.0 |  0.25
Comm    | 0.07655    | 0.11144    | 0.15085    |   9.8 | 33.79
Output  | 0.00017603 | 0.0001896  | 0.00022347 |   0.0 |  0.06
Modify  | 0.0023122  | 0.0025623  | 0.0026506  |   0.3 |  0.78
Other   |            | 0.001585   |            |       |  0.48

Nlocal:              4 ave           5 max           3 min
Histogram: 1 0 0 0 0 2 0 0 0 1
Nghost:            226 ave         227 max         225 min
Histogram: 1 0 0 0 0 2 0 0 0 1
Neighs:             67 ave          87 max          54 min
Histogram: 1 0 1 1 0 0 0 0 0 1
FullNghs:          134 ave         167 max         102 min
Histogram: 1 0 0 0 1 1 0 0 0 1

Total # of neighbors = 536
Ave neighs/atom = 33.5
Neighbor list builds = 114
Dangerous builds = 0
unfix thermostat
reset_timestep 0
fix integrate all nve
dump trajectory all custom 100 trajectory.ye3t_tagged_127.lammpstrj id type x y z vx vy vz fx fy fz
dump_modify trajectory sort id
print "YE3T_NVE_BEGIN"
YE3T_NVE_BEGIN
run 10000
Per MPI rank memory allocation (min/avg/max) = 8.957 | 9.015 | 9.059 Mbytes
   Step          Temp          PotEng         KinEng         TotEng         Press     
         0  399.10069142683938 -29.767747143522442 0.77381719865150278 -28.993929944870938 6372.5211514943776
       100  364.91237265672271 -29.701451598182999 0.70752939302853024 -28.993922205154469 6663.3716635048495
       200  348.97455096917002 -29.670563058274226 0.67662751589377212 -28.993935542380452 6002.21223911175
       300  429.03730684622383 -29.825812984708008 0.83186136740028582 -28.993951617307722 6341.6443848785639
       400  328.95799285007655 -29.631754228417279 0.63781736782064791 -28.99393686059663 6547.4327439755498
       500  509.09538131155631 -29.981053582590818 0.98708614210743095 -28.993967440483388 6558.6936191252989
       600  281.04297819924676 -29.538853716298803 0.54491484169899718 -28.993938874599806 6555.7200505614846
       700  453.622930206592 -29.873483229220284 0.87953048600743444 -28.993952743212848 7148.5510313234145
       800  406.23441151114355 -29.781599634257134 0.78764878403880134 -28.993950850218333 6856.8880833614594
       900  321.52249413220864 -29.617330201079568 0.62340066318436405 -28.993929537895205 6855.7996231747356
      1000  422.73182160998419 -29.813577632556019 0.81963564836131042 -28.993941984194709 6098.0178974471382
      1100  308.72271427843162 -29.592500695287285 0.59858314218635467 -28.993917553100932 6612.5697936217648
      1200  441.28272203111146 -29.8495467816511 0.85560402953604253 -28.993942752115057 6784.0324405808124
      1300  328.7526322916392 -29.631344039007132 0.63741919378723455 -28.993924845219897 6112.0521715887899
      1400  402.89157860347552 -29.775093891508149 0.78116735804346216 -28.993926533464688 5814.6469785433073
      1500  311.18150932590072 -29.597276438324585 0.6033505052517717 -28.993925933072813 5720.1638065460211
      1600  375.61113138225602 -29.722196624191696 0.728273239591267 -28.993923384600429 6956.2035233030238
      1700  385.82841302498366 -29.742032511321696 0.74808354919093922 -28.993948962130759 6585.7668923830288
      1800  359.77718246058936 -29.691514458276771 0.69757276158820858 -28.993941696688562 6008.7485821931705
      1900  435.06611593596011 -29.837498885939581 0.84355063845703526 -28.993948247482546 6762.6529932064841
      2000  378.15442921083962 -29.727135129108532 0.7332044452827805 -28.993930683825752 6895.0761541214697
      2100  359.99601276051993 -29.691931275103002 0.69799705213269991 -28.993934222970303 6486.4406293533511
      2200  258.66946960644748 -29.495449957246464 0.50153479722603744 -28.993915160020428 6119.9781138763838
      2300  467.05558030776575 -29.899527156166641 0.90557508050461422 -28.993952075662026 7636.8862421148879
      2400  408.88004658353225 -29.786722347838079 0.79277841163491203 -28.993943936203166 6892.9396057074591
      2500  256.37259493702436 -29.491014341893049 0.49708138193379053 -28.99393295995926 5909.0733763483786
      2600  458.19573257911446 -29.882353147932676 0.88839670247336344 -28.993956445459311 6306.9205748673294
      2700  374.91764516578479 -29.720859997193486 0.72692863765781845 -28.993931359535669 6548.2228223971551
      2800  335.02528570475084 -29.643506339854952 0.64958125513293785 -28.993925084722015 6824.4154859767768
      2900  378.75989489756859 -29.728327433464102 0.73437838401966715 -28.993949049444435 5854.7017492840532
      3000  423.6402507615901 -29.815348014148285 0.82139700361919255 -28.993951010529091 6693.1770252614106
      3100  340.27213428330651 -29.653683617982821 0.65975438125379515 -28.993929236729027 7670.1972457109023
      3200  288.24293477959054 -29.552807915222473 0.55887485317253127 -28.99393306204994 6415.0071854726157
      3300  490.20825921938768 -29.94442755983934 0.95046586000343469 -28.993961699835907 6430.5005932200802
      3400  286.94264984023005 -29.550278547648404 0.55635372787548543 -28.993924819772918 7129.5319201706543
      3500  444.48828663080229 -29.855778288781735 0.86181930571048604 -28.993958983071249 6198.2472332445786
      3600  397.03159546756473 -29.763765719637249 0.76980542399578145 -28.993960295641468 6308.5228212037055
      3700  352.79404830748462 -29.67796683725804 0.68403314759043699 -28.993933689667603 7022.0487291117588
      3800  412.18255233275767 -29.79312949621891 0.79918164721503526 -28.993947849003874 7063.0815613164996
      3900  347.70340853315878 -29.668102208381256 0.67416289505985516 -28.993939313321402 6307.8240040674627
      4000  419.7875926906159 -29.807877929605141 0.81392707650584928 -28.993950853099292 6650.1537980291414
      4100  324.173329430058 -29.622467722781266 0.62854037350893099 -28.993927349272337 6678.0000328886363
      4200  418.09737143329045 -29.804589250526746 0.81064990283378979 -28.993939347692955 6552.8560357893948
      4300  329.06396904139717 -29.631973503823673 0.63802284528849773 -28.993950658535177 5919.5112479651671
      4400  408.6503140681483 -29.786287216754033 0.79233298276116593 -28.993954233992866 6198.7891702584666
      4500  439.92079850126646 -29.846924985964762 0.85296339304184232 -28.993961592922918 6934.3996502819627
      4600  371.36607834033418 -29.713990280304785 0.72004249701529444 -28.993947783289489 6294.7946905101771
      4700  384.79513726091841 -29.740039359076277 0.74608012856461825 -28.99395923051166 6135.9172417960917
      4800  423.36155043879648 -29.81481590777031 0.82085663095715478 -28.993959276813154 6407.0955631505512
      4900  491.83451009473436 -29.947590658218346 0.95361900136273992 -28.993971656855607 6804.1736815765316
      5000  373.0665344322224 -29.717315569821608 0.72333951503034843 -28.993976054791258 5873.5086793075261
      5100  346.67422466133502 -29.666116883928424 0.67216740821230114 -28.993949475716125 5810.1141405500484
      5200  405.52854412112708 -29.780226033232282 0.78628017622103685 -28.993945857011244 6741.1860545517193
      5300  378.80072256502945 -29.728395722614593 0.73445754487290726 -28.993938177741686 7493.3371599660604
      5400  394.82247063891731 -29.759477633603069 0.76552214706067045 -28.993955486542397 5743.7480130689437
      5500  345.03887089149526 -29.662943819041899 0.66899661723106441 -28.993947201810833 5880.9762165107331
      5600  426.66933002630816 -29.82121668009988 0.82727009199380175 -28.993946588106077 7474.8102036830896
      5700  406.84661969853056 -29.782792220736482 0.78883579582487884 -28.993956424911602 6447.6118723709887
      5800  382.01690169331494 -29.734667398861063 0.74069340157992958 -28.993973997281135 5409.4446377175036
      5900  422.56058894494475 -29.813258687674093 0.81930364497463437 -28.993955042699458 7455.3158236022991
      6000  377.98321958862834 -29.726806939995768 0.73287248657389414 -28.993934453421875 7317.2866376261836
      6100  399.42353059317838 -29.768404854498385 0.77444315221329263 -28.993961702285091 6004.6695950896892
      6200  343.63286699224392 -29.660223228159751 0.66627051321274744 -28.993952714947003 6697.9753910632016
      6300  508.45028576001471 -29.979808420436967 0.98583536493946411 -28.993973055497502 6763.3245033047469
      6400  366.76240375201587 -29.705092897005812 0.71111642234301176 -28.993976474662801 6109.7307715918159
      6500  371.49748738813872 -29.71424447771642 0.72029728630389733 -28.993947191412524 6996.5185863421812
      6600  376.40662308366228 -29.72375650955091 0.72981562018131807 -28.993940889369593 7995.8241204997794
      6700  354.65389198257878 -29.681587162758248 0.68763920253723709 -28.993947960221011 6556.3057555258392
      6800  379.64070745460981 -29.73002502764615 0.73608619340228176 -28.993938834243867 6710.5553355116672
      6900  429.86880423868388 -29.827427914164829 0.83347355950303348 -28.993954354661795 6546.196587001893
      7000  397.71997916593477 -29.765081445064069 0.77114013264578563 -28.993941312418283 6761.9394242861117
      7100  251.81577954296034 -29.482181418796344 0.48824616265516635 -28.993935256141178 5731.2447419792479
      7200  455.92396634264981 -29.877932598242538 0.88399196997639051 -28.993940628266149 6834.4082910522811
      7300  373.56502999330212 -29.718228786722491 0.72430604915795371 -28.993922737564539 6017.2169841396972
      7400  313.86047331270339 -29.602463257099416 0.60854475435253008 -28.993918502746887 6212.7037343307902
      7500  240.33956877907806 -29.459877771141336 0.46599491264431658 -28.99388285849702 6474.6472101771242
      7600  443.16103572290473 -29.853186228655773 0.85924589603839274 -28.993940332617381 6928.7233332602573
      7700  366.88783977150143 -29.705302352272668 0.71135963051401563 -28.993942721758653 5541.0338551559262
      7800  309.8951966483184 -29.594788252349275 0.60085647080347726 -28.993931781545797 5262.5746328941595
      7900  397.53196700391652 -29.764694255106917 0.770775595455922 -28.993918659650994 7127.4293972098549
      8000  264.29918772678366 -29.50635798422762 0.51245026993419418 -28.993907714293425 7219.829967777302
      8100  335.15744417526957 -29.643749541777382 0.64983749747887132 -28.993912044298511 6667.7650848374233
      8200  372.43333159305905 -29.716036598447843 0.72211179666827841 -28.993924801779563 6919.9215909596915
      8300  377.76413021235641 -29.726384287052142 0.73244769370572105 -28.993936593346419 5983.6978981447974
      8400  341.87434557912019 -29.65678766290155 0.66286091222005783 -28.993926750681492 6642.8908098976035
      8500  322.80269157907549 -29.619800082359191 0.62588284079852363 -28.993917241560666 7359.3922863478019
      8600  355.39868195321463 -29.683009888642388 0.68908327743122111 -28.993926611211169 5852.7443300740597
      8700  331.62640961913621 -29.636910986042537 0.64299116689798419 -28.993919819144551 7405.0610947316063
      8800  467.4488502897637 -29.900295676298924 0.90633759252807222 -28.993958083770853 6705.3105553733149
      8900  344.31347973581728 -29.661536742226318 0.66759015474159455 -28.993946587484722 5990.7145822005414
      9000  317.55890340191974 -29.609625473487597 0.6157156484965971 -28.993909824991 7093.483894422282
      9100  392.16996725683572 -29.754327286257706 0.76037920248395763 -28.993948083773748 6868.8453056508433
      9200  350.1824714871837 -29.672912823686701 0.67896955561337602 -28.993943268073327 6683.9408250036704
      9300  384.06415534491549 -29.73860023514888 0.74466282613779455 -28.993937409011085 7340.2633998774772
      9400  339.27514906893435 -29.651770352242195 0.65782132445320607 -28.99394902778899 5794.9694064233581
      9500  423.58106306044738 -29.815231293180474 0.82128224445671361 -28.99394904872376 6017.7710125276544
      9600  386.42881024835066 -29.743184796462401 0.74924766067318938 -28.993937135789213 6723.215621020734
      9700  279.87192164199604 -29.536570467267168 0.54264427759309575 -28.993926189674074 7130.0224179099114
      9800  434.09145121119644 -29.835613690297322 0.84166085890229525 -28.993952831395028 6548.8223135103844
      9900  406.55201614087235 -29.782225491284507 0.78826458834617252 -28.993960902938333 7129.3819173216307
     10000  263.05004431543392 -29.503950165970437 0.51002830305704128 -28.993921862913396 6784.8855632015302
Loop time of 1.57825 on 4 procs for 10000 steps with 16 atoms

Performance: 273.721 ns/day, 0.088 hours/ns, 6336.126 timesteps/s, 101.378 katom-step/s
82.3% CPU use with 4 MPI tasks x 1 OpenMP threads

MPI task timing breakdown:
Section |  min time  |  avg time  |  max time  |%varavg| %total
---------------------------------------------------------------
Pair    | 1.0242     | 1.0603     | 1.08       |   2.2 | 67.18
Neigh   | 0.0041359  | 0.0042522  | 0.0043525  |   0.1 |  0.27
Comm    | 0.47205    | 0.49232    | 0.52852    |   3.3 | 31.19
Output  | 0.0053178  | 0.0059353  | 0.0071902  |   1.0 |  0.38
Modify  | 0.0014695  | 0.0014893  | 0.0015197  |   0.0 |  0.09
Other   |            | 0.01396    |            |       |  0.88

Nlocal:              4 ave           6 max           2 min
Histogram: 1 0 0 0 0 2 0 0 0 1
Nghost:         209.75 ave         218 max         200 min
Histogram: 1 0 0 1 0 0 0 1 0 1
Neighs:          68.25 ave         105 max          33 min
Histogram: 1 0 0 1 0 1 0 0 0 1
FullNghs:        136.5 ave         206 max          69 min
Histogram: 1 0 0 0 1 1 0 0 0 1

Total # of neighbors = 546
Ave neighs/atom = 34.125
Neighbor list builds = 600
Dangerous builds = 0
print "YE3T_NVE_END"
YE3T_NVE_END
Total wall time: 0:00:02
