LAMMPS (22 Jul 2025 - Update 4)
OMP_NUM_THREADS environment is not set. Defaulting to 1 thread.
  using 1 OpenMP thread(s) per MPI task
# 2000-step NVT preparation plus 10000-step NVE stability gate.
units metal
atom_style atomic
boundary p p p
atom_modify map yes sort 0 0.0
newton on
lattice bcc 3.427
Lattice spacing in x,y,z = 3.427 3.427 3.427
region cell block 0 2 0 2 0 2 units lattice
create_box 1 cell
Created orthogonal box = (0 0 0) to (6.854 6.854 6.854)
  1 by 1 by 1 MPI processor grid
create_atoms 1 box
Created 16 atoms
  using lattice units in orthogonal box = (0 0 0) to (6.854 6.854 6.854)
  create_atoms CPU = 0.000 seconds
mass 1 6.9400000000000004
reset_atoms id sort yes
Resetting atom IDs ...
WARNING: Communication cutoff is 0.0. No ghost atoms will be generated. Energies and forces may be wrong and atoms may get lost. (src/comm_brick.cpp:212)
displace_atoms all random 0.01 0.01 0.01 78313 units box
Displacing atoms ...
velocity all create 362.92000000000002 86232 mom yes rot no dist gaussian
neighbor 0.3 bin
neigh_modify every 1 delay 0 check yes
pair_style hybrid/overlay ye3t model_family tagged_cauchy block_policy direct zbl 1.6007008523823156 2.1009198687517894
YE3T configuration: model_family tagged_cauchy, source_realization model_default, chunksize 4096, block_policy direct, plan none, auto_replay none
pair_coeff * * ye3t models/ye3t_tagged_127/model.ye3t.json Li
YE3T CPU dispatch: PACE-compatible spline/half-complex source with split-real harmonics, exact signed-m expansion/collapse, tiled split-real symmetric-power forward/adjoint, source_model c4534fa1616ccc905b59fd5db6c041e2b578d90d693391eae2b97e05a431c625, direct_logical_plan c5e8265064fb2c05af35b72beaf6874a7df567d5c1ea2173737415dbab261dda
YE3T CPU source schedule: complete environments in 8/16-center batches, soft cache target 1048576 bytes (992 edges), no source-table replay; chunksize is an outer packing limit, not a memory limit
YE3T self-contained composite: ordinary model 25b75de20d3742cac004efc0de2dae617f41d682260a62967c12b361ba1ed812, tagged model 649e0e23505d53bbcdc5cc20ed00d4758d2b894946599e465b8cd593e3557b19, manifest c4534fa1616ccc905b59fd5db6c041e2b578d90d693391eae2b97e05a431c625, ordinary evaluator compiled_direct, tagged evaluator compiled_direct
YE3T tagged-Cauchy CPU dispatch: real-arithmetic exact moment reduction, evaluator compiled_direct, portfolio 8f4c674fb263d222640d6677859ca568b542c914f6d722e34b1704aa0c184c57, tag_count 2, feature_count 69, model_self_hash c5e8265064fb2c05af35b72beaf6874a7df567d5c1ea2173737415dbab261dda
Loaded YE3T tagged-Cauchy potential models/ye3t_tagged_127/model.ye3t.json
pair_coeff * * zbl 3 3
timestep 0.0005
thermo 100
thermo_style custom step temp pe ke etotal press
thermo_modify format float %.17g
fix thermostat all nvt temp 362.92000000000002 362.92000000000002 0.05
run 2000
Neighbor list info ...
  update: every = 1 steps, delay = 0 steps, check = yes
  max neighbors/atom: 2000, page size: 100000
  master list distance cutoff = 5.5050358
  ghost atom cutoff = 5.5050358
  binsize = 2.7525179, bins = 3 3 3
  2 neighbor lists, perpetual/occasional/extra = 2 0 0
  (1) pair ye3t, perpetual
      attributes: full, newton on, cut 5.505035841991572
      pair build: full/bin/atomonly
      stencil: full/bin/3d
      bin: standard
  (2) pair zbl, perpetual, half/full from (1)
      attributes: half, newton on
      pair build: halffull/newton
      stencil: none
      bin: none
Per MPI rank memory allocation (min/avg/max) = 9.204 | 9.204 | 9.204 Mbytes
   Step          Temp          PotEng         KinEng         TotEng         Press     
         0  362.92000000000002 -30.380487262619909 0.70366637735100002 -29.67682088526891 3352.4426576502929
       100  196.07814406294014 -29.960693677881977 0.38017633999359801 -29.580517337888381 4237.532782458663
       200  297.9315067179748 -29.92129900104743 0.57766004637650847 -29.343638954670922 4944.9114586152828
       300  375.10520059856299 -29.822023947372372 0.72729228929436507 -29.094731658078008 6415.3897456441719
       400  360.88096840281935 -29.635641760021031 0.69971289455233276 -28.935928865468696 7187.573474109955
       500  491.94881148814716 -29.84893999653093 0.95384062058303354 -28.895099375947897 6555.4609494266297
       600  397.4217754983614 -29.716841928689576 0.77056194490613472 -28.946279983783441 6210.2178207176812
       700  364.55627226545238 -29.744724846608676 0.70683894920537782 -29.037885897403299 7557.5838006412914
       800  283.54247923574701 -29.737500016090621 0.54976112969508228 -29.18773888639554 5501.5302283249584
       900  431.48862408830996 -29.997411256770562 0.83661423173258165 -29.160797025037979 5752.1253709374296
      1000  339.81257178600742 -29.675802893926999 0.65886333452823342 -29.016939559398764 6573.6723062533556
      1100  473.18749755196006 -29.631179929305176 0.91746426818630256 -28.713715661118872 7286.1392465496419
      1200  444.84457852191235 -29.513903278709179 0.8625101208330942 -28.651393157876086 7138.9576531586254
      1300  453.32395522349583 -29.770655825029408 0.87895080276243875 -28.891705022266969 6594.9571224390111
      1400  350.50151798938413 -29.850609018121574 0.67958815557041852 -29.171020862551156 5788.1498983071751
      1500  310.40697053069209 -29.780077656565851 0.60184875029711982 -29.178228906268732 5579.7898608010819
      1600  465.50212205625064 -29.897479367574149 0.9025630769219799 -28.994916290652171 6202.6872258550229
      1700  451.92722264706219 -29.639657472836817 0.87624267493209818 -28.763414797904719 5723.4821249533879
      1800  625.04832931830174 -29.753544827142562 1.2119075651953717 -28.541637261947191 8112.4015428065286
      1900  249.23166315632378 -29.422968801078881 0.48323581377266356 -28.939732987306218 6158.7387841116688
      2000  399.1006914268612 -29.767747143522627 0.77381719865154508 -28.993929944871081 6372.5211514959974
Loop time of 0.765397 on 1 procs for 2000 steps with 16 atoms

Performance: 112.883 ns/day, 0.213 hours/ns, 2613.022 timesteps/s, 41.808 katom-step/s
100.0% CPU use with 1 MPI tasks x 1 OpenMP threads

MPI task timing breakdown:
Section |  min time  |  avg time  |  max time  |%varavg| %total
---------------------------------------------------------------
Pair    | 0.75877    | 0.75877    | 0.75877    |   0.0 | 99.13
Neigh   | 0.0024408  | 0.0024408  | 0.0024408  |   0.0 |  0.32
Comm    | 0.002046   | 0.002046   | 0.002046   |   0.0 |  0.27
Output  | 0.00026107 | 0.00026107 | 0.00026107 |   0.0 |  0.03
Modify  | 0.0013524  | 0.0013524  | 0.0013524  |   0.0 |  0.18
Other   |            | 0.0005284  |            |       |  0.07

Nlocal:             16 ave          16 max          16 min
Histogram: 1 0 0 0 0 0 0 0 0 0
Nghost:            325 ave         325 max         325 min
Histogram: 1 0 0 0 0 0 0 0 0 0
Neighs:            268 ave         268 max         268 min
Histogram: 1 0 0 0 0 0 0 0 0 0
FullNghs:          536 ave         536 max         536 min
Histogram: 1 0 0 0 0 0 0 0 0 0

Total # of neighbors = 536
Ave neighs/atom = 33.5
Neighbor list builds = 114
Dangerous builds = 0
unfix thermostat
reset_timestep 0
fix integrate all nve
dump trajectory all custom 100 trajectory.ye3t_tagged_127.lammpstrj id type x y z vx vy vz fx fy fz
dump_modify trajectory sort id
print "YE3T_NVE_BEGIN"
YE3T_NVE_BEGIN
run 10000
Per MPI rank memory allocation (min/avg/max) = 9.465 | 9.465 | 9.465 Mbytes
   Step          Temp          PotEng         KinEng         TotEng         Press     
         0  399.1006914268612 -29.767747143522627 0.77381719865154508 -28.993929944871081 6372.5211514959974
       100  364.91237265680161 -29.701451598183255 0.70752939302868323 -28.993922205154572 6663.371663505689
       200  348.97455096916468 -29.670563058275292 0.6766275158937618 -28.993935542381529 6002.2122391087069
       300  429.03730684628835 -29.825812984708222 0.83186136740041094 -28.993951617307811 6341.6443848714052
       400  328.95799285009878 -29.631754228417293 0.63781736782069098 -28.993936860596602 6547.4327439811032
       500  509.09538131154801 -29.981053582590334 0.98708614210741485 -28.993967440482919 6558.6936191250043
       600  281.04297819919555 -29.538853716297282 0.54491484169889781 -28.993938874598385 6555.7200505512765
       700  453.62293020657404 -29.873483229218337 0.87953048600739969 -28.993952743210937 7148.551031326585
       800  406.23441151124439 -29.781599634259678 0.78764878403899685 -28.993950850220681 6856.8880833621006
       900  321.52249413233142 -29.617330201079454 0.62340066318460219 -28.993929537894854 6855.7996231787993
      1000  422.73182161005781 -29.813577632555337 0.81963564836145308 -28.993941984193885 6098.017897457702
      1100  308.72271427843873 -29.592500695285551 0.59858314218636843 -28.993917553099184 6612.5697936223751
      1200  441.28272203099345 -29.849546781651384 0.85560402953581371 -28.993942752115569 6784.0324405799593
      1300  328.75263229205143 -29.631344039005427 0.6374191937880338 -28.993924845217393 6112.0521715911182
      1400  402.89157860347433 -29.775093891508121 0.78116735804345994 -28.993926533464659 5814.646978549541
      1500  311.18150932611934 -29.597276438324627 0.60335050525219558 -28.993925933072433 5720.1638065502511
      1600  375.61113138259844 -29.722196624192435 0.72827323959193091 -28.993923384600503 6956.2035233058732
      1700  385.82841302502987 -29.742032511320176 0.74808354919102882 -28.993948962129146 6585.7668923908241
      1800  359.77718246047675 -29.691514458275549 0.69757276158799031 -28.993941696687557 6008.7485821873706
      1900  435.06611593591879 -29.837498885938601 0.8435506384569551 -28.993948247481647 6762.652993205922
      2000  378.1544292114196 -29.727135129110465 0.73320444528390505 -28.993930683826559 6895.076154120412
      2100  359.99601275999385 -29.691931275102874 0.69799705213167984 -28.993934222971195 6486.4406293564234
      2200  258.66946960654201 -29.495449957245 0.50153479722622074 -28.99391516001878 6119.9781138644057
      2300  467.05558030794651 -29.899527156166442 0.90557508050496471 -28.993952075661479 7636.8862421063413
      2400  408.88004658306107 -29.786722347835791 0.79277841163399843 -28.993943936201791 6892.9396057175982
      2500  256.37259493635759 -29.491014341890988 0.49708138193249773 -28.993932959958492 5909.0733763337166
      2600  458.19573257830001 -29.882353147929692 0.88839670247178426 -28.993956445457908 6306.9205748668719
      2700  374.91764516570129 -29.720859997193443 0.72692863765765647 -28.993931359535786 6548.2228223976736
      2800  335.02528570440779 -29.643506339852422 0.64958125513227272 -28.99392508472015 6824.4154859848322
      2900  378.75989489719115 -29.72832743346197 0.7343783840189354 -28.993949049443035 5854.701749311952
      3000  423.64025076165603 -29.815348014150061 0.82139700361932033 -28.99395101053074 6693.1770252674041
      3100  340.27213428306294 -29.653683617982608 0.65975438125332286 -28.993929236729286 7670.1972456995836
      3200  288.24293477945571 -29.552807915221067 0.55887485317226981 -28.993933062048797 6415.0071854771822
      3300  490.20825921829049 -29.944427559838303 0.95046586000130728 -28.993961699836994 6430.5005932115982
      3400  286.94264983953786 -29.550278547647665 0.55635372787414339 -28.993924819773522 7129.5319201815091
      3500  444.48828663000018 -29.855778288780684 0.86181930570893084 -28.993958983071753 6198.2472332370362
      3600  397.03159546777437 -29.763765719639395 0.7698054239961879 -28.993960295643205 6308.5228212158017
      3700  352.79404830370692 -29.677966837250196 0.6840331475831124 -28.993933689667085 7022.0487291186037
      3800  412.18255233311658 -29.793129496220274 0.79918164721573115 -28.993947849004542 7063.0815613431896
      3900  347.70340852876217 -29.668102208372318 0.67416289505133054 -28.993939313320986 6307.8240041026083
      4000  419.78759269096747 -29.807877929607443 0.81392707650653096 -28.993950853100912 6650.1537980498488
      4100  324.17332942709106 -29.622467722773649 0.62854037350317837 -28.993927349270471 6678.0000329260711
      4200  418.09737143031259 -29.804589250520422 0.81064990282801597 -28.993939347692407 6552.856035744252
      4300  329.06396903941868 -29.631973503819111 0.63802284528466158 -28.993950658534448 5919.5112481118294
      4400  408.65031406748335 -29.786287216751916 0.79233298275987663 -28.993954233992039 6198.7891702527313
      4500  439.9207984997916 -29.846924985961721 0.85296339303898272 -28.993961592922737 6934.3996501564498
      4600  371.3660783411384 -29.71399028030595 0.72004249701685363 -28.993947783289098 6294.7946905175768
      4700  384.7951372735194 -29.740039359100919 0.74608012858905037 -28.993959230511869 6135.9172420151108
      4800  423.36155043487878 -29.814815907763943 0.82085663094955874 -28.993959276814383 6407.0955632473397
      4900  491.83451009889103 -29.947590658225323 0.95361900137079936 -28.993971656854523 6804.1736815869281
      5000  373.06653442884812 -29.717315569814872 0.723339515023806 -28.993976054791066 5873.5086797258728
      5100  346.67422469880063 -29.666116883998939 0.67216740828494326 -28.993949475713997 5810.1141405940098
      5200  405.52854411895942 -29.780226033226512 0.78628017621683388 -28.993945857009678 6741.186054589708
      5300  378.80072253358787 -29.728395722554509 0.73445754481194503 -28.993938177742564 7493.337160226587
      5400  394.82247068104084 -29.759477633684185 0.7655221471423439 -28.993955486541839 5743.7480131647426
      5500  345.03887085935565 -29.662943818980196 0.66899661716874881 -28.993947201811448 5880.9762167537938
      5600  426.6693300046278 -29.821216680057489 0.8272700919517656 -28.993946588105725 7474.8102036610371
      5700  406.84661969398553 -29.782792220728112 0.78883579581606644 -28.993956424912046 6447.6118723215468
      5800  382.0169016803419 -29.734667398836038 0.74069340155477614 -28.993973997281262 5409.4446389984087
      5900  422.56058896845218 -29.813258687720023 0.81930364502021302 -28.99395504269981 7455.3158236901581
      6000  377.98321961662083 -29.726806940048547 0.73287248662816884 -28.99393445342038 7317.2866371995879
      6100  399.42353055682287 -29.76840485442743 0.7744431521428029 -28.993961702284629 6004.6695953486487
      6200  343.63286705202984 -29.660223228276905 0.66627051332866649 -28.993952714948239 6697.9753908818848
      6300  508.45028579983102 -29.979808420515212 0.98583536501666402 -28.993973055498547 6763.3245023746977
      6400  366.76240375546746 -29.705092897013088 0.71111642234970407 -28.993976474663384 6109.7307707833143
      6500  371.49748741177086 -29.714244477764794 0.72029728634971768 -28.993947191415074 6996.5185875462184
      6600  376.40662303992309 -29.723756509470377 0.72981562009651202 -28.993940889373864 7995.824119540026
      6700  354.65389205606294 -29.681587162902446 0.68763920267971568 -28.99394796022273 6556.3057532358353
      6800  379.64070747781494 -29.730025027694339 0.73608619344727422 -28.993938834247064 6710.5553344849104
      6900  429.86880439433935 -29.827427914473844 0.83347355980483417 -28.993954354669011 6546.1965870132817
      7000  397.71997911947506 -29.765081444976289 0.77114013255570479 -28.993941312420585 6761.9394239527819
      7100  251.8157796569642 -29.482181419022979 0.48824616287620864 -28.99393525614677 5731.2447428165669
      7200  455.92396645872753 -29.877932598472725 0.88399197020145392 -28.993940628271272 6834.4082901629954
      7300  373.56502994158723 -29.718228786623271 0.72430604905768359 -28.993922737565587 6017.2169857985136
      7400  313.86047326641273 -29.602463257011507 0.60854475426277699 -28.993918502748731 6212.7037366583163
      7500  240.33956874174163 -29.459877771074645 0.46599491257192488 -28.993882858502719 6474.6472126124481
      7600  443.16103545099628 -29.853186228135698 0.8592458955111888 -28.993940332624508 6928.7233352822177
      7700  366.88783996281012 -29.705302352649738 0.71135963088494447 -28.993942721764792 5541.033854561304
      7800  309.89519665235639 -29.594788252363287 0.60085647081130655 -28.993931781551982 5262.5746327664701
      7900  397.53196715161931 -29.764694255392826 0.77077559574230325 -28.993918659650522 7127.4294011509146
      8000  264.29918793002133 -29.506357984623435 0.51245027032825219 -28.993907714295183 7219.8299678546582
      8100  335.15744411089611 -29.643749541652824 0.64983749735405749 -28.993912044298767 6667.7650795292147
      8200  372.43333146773199 -29.716036598209769 0.72211179642528156 -28.993924801784487 6919.9215879001404
      8300  377.76413078536638 -29.726384288168433 0.73244769481673133 -28.993936593351702 5983.6978882581416
      8400  341.87434580059499 -29.656787663334768 0.66286091264947578 -28.993926750685294 6642.8907987280872
      8500  322.80269158319896 -29.619800082370404 0.62588284080651868 -28.993917241563885 7359.3922872217481
      8600  355.39868259842024 -29.683009889900333 0.68908327868221164 -28.993926611218122 5852.7443247079109
      8700  331.62640927266602 -29.636910985375152 0.64299116622621233 -28.993919819148939 7405.0610853233047
      8800  467.44885079059253 -29.900295677257475 0.90633759349913035 -28.993958083758343 6705.3105504744872
      8900  344.31348048449644 -29.661536743672926 0.66759015619321027 -28.993946587479716 5990.7145749217352
      9000  317.55890297104224 -29.609625472653804 0.61571564766116782 -28.993909824992635 7093.4838848524532
      9100  392.16996789709765 -29.754327287494917 0.76037920372536283 -28.993948083769553 6868.8452985360318
      9200  350.18247064253518 -29.672912822056489 0.67896955397568515 -28.993943268080805 6683.9408252280828
      9300  384.06415543642566 -29.738600235320206 0.74466282631522385 -28.993937409004982 7340.2634001286206
      9400  339.27515102572329 -29.65177035602801 0.65782132824722839 -28.993949027780783 5794.9693873654405
      9500  423.58106209545218 -29.815231291309757 0.82128224258568239 -28.993949048724076 6017.770992574533
      9600  386.42881111063161 -29.743184798147126 0.7492476623450679 -28.99393713580206 6723.2156184844998
      9700  279.87192197206338 -29.536570467925102 0.54264427823306405 -28.99392618969204 7130.0224109373412
      9800  434.09145052418751 -29.835613689001207 0.84166085757025211 -28.993952831430956 6548.8223047368974
      9900  406.55201740087472 -29.782225493769971 0.78826459078919386 -28.993960902980778 7129.3819148685297
     10000  263.05004510904371 -29.503950167571574 0.51002830459577297 -28.9939218629758 6784.8855604681967
Loop time of 3.81069 on 1 procs for 10000 steps with 16 atoms

Performance: 113.365 ns/day, 0.212 hours/ns, 2624.193 timesteps/s, 41.987 katom-step/s
99.9% CPU use with 1 MPI tasks x 1 OpenMP threads

MPI task timing breakdown:
Section |  min time  |  avg time  |  max time  |%varavg| %total
---------------------------------------------------------------
Pair    | 3.7764     | 3.7764     | 3.7764     |   0.0 | 99.10
Neigh   | 0.012698   | 0.012698   | 0.012698   |   0.0 |  0.33
Comm    | 0.010106   | 0.010106   | 0.010106   |   0.0 |  0.27
Output  | 0.0055878  | 0.0055878  | 0.0055878  |   0.0 |  0.15
Modify  | 0.0026467  | 0.0026467  | 0.0026467  |   0.0 |  0.07
Other   |            | 0.003278   |            |       |  0.09

Nlocal:             16 ave          16 max          16 min
Histogram: 1 0 0 0 0 0 0 0 0 0
Nghost:            298 ave         298 max         298 min
Histogram: 1 0 0 0 0 0 0 0 0 0
Neighs:            273 ave         273 max         273 min
Histogram: 1 0 0 0 0 0 0 0 0 0
FullNghs:          546 ave         546 max         546 min
Histogram: 1 0 0 0 0 0 0 0 0 0

Total # of neighbors = 546
Ave neighs/atom = 34.125
Neighbor list builds = 600
Dangerous builds = 0
print "YE3T_NVE_END"
YE3T_NVE_END
Total wall time: 0:00:04
