LAMMPS (22 Jul 2025 - Update 4)
OMP_NUM_THREADS environment is not set. Defaulting to 1 thread.
  using 1 OpenMP thread(s) per MPI task
# 2000-step NVT preparation plus 10000-step NVE stability gate.
units metal
atom_style atomic
boundary p p p
atom_modify map yes sort 0 0.0
newton on
lattice bcc 3.427
Lattice spacing in x,y,z = 3.427 3.427 3.427
region cell block 0 2 0 2 0 2 units lattice
create_box 1 cell
Created orthogonal box = (0 0 0) to (6.854 6.854 6.854)
  1 by 2 by 2 MPI processor grid
create_atoms 1 box
Created 16 atoms
  using lattice units in orthogonal box = (0 0 0) to (6.854 6.854 6.854)
  create_atoms CPU = 0.000 seconds
mass 1 6.9400000000000004
reset_atoms id sort yes
Resetting atom IDs ...
WARNING: Communication cutoff is 0.0. No ghost atoms will be generated. Energies and forces may be wrong and atoms may get lost. (src/comm_brick.cpp:212)
displace_atoms all random 0.01 0.01 0.01 77304 units box
Displacing atoms ...
velocity all create 362.92000000000002 85223 mom yes rot no dist gaussian
neighbor 0.3 bin
neigh_modify every 1 delay 0 check yes
pair_style hybrid/overlay pace product zbl 1.6007008523823156 2.1009198687517894
ACE version: 2025.12.4p1
Product evaluator is used
pair_coeff * * pace models/ace_127/potential.yace Li
Loading models/ace_127/potential.yace
Total number of basis functions
	Li: 4 (r=1) 123 (r>1)
Mapping LAMMPS atom type #1(Li) -> ACE species type #0
pair_coeff * * zbl 3 3
timestep 0.0005
thermo 100
thermo_style custom step temp pe ke etotal press
thermo_modify format float %.17g
fix thermostat all nvt temp 362.92000000000002 362.92000000000002 0.05
run 2000
Neighbor list info ...
  update: every = 1 steps, delay = 0 steps, check = yes
  max neighbors/atom: 2000, page size: 100000
  master list distance cutoff = 5.5050358
  ghost atom cutoff = 5.5050358
  binsize = 2.7525179, bins = 3 3 3
  2 neighbor lists, perpetual/occasional/extra = 2 0 0
  (1) pair pace, perpetual
      attributes: full, newton on, cut 5.505035841991572
      pair build: full/bin/atomonly
      stencil: full/bin/3d
      bin: standard
  (2) pair zbl, perpetual, half/full from (1)
      attributes: half, newton on
      pair build: halffull/newton
      stencil: none
      bin: none
Per MPI rank memory allocation (min/avg/max) = 3.585 | 3.585 | 3.585 Mbytes
   Step          Temp          PotEng         KinEng         TotEng         Press     
         0  362.92000000000007 -30.383439827846559 0.70366637735100013 -29.67977345049556 3316.3194025559701
       100  217.3842400016251 -29.994978320143886 0.42148677574987292 -29.573491544394013 4619.4370384993217
       200  254.42638251001068 -29.834881986482102 0.49330786642604169 -29.341574120056062 5905.4078404611691
       300  476.91582992063172 -29.974898847198897 0.92469313992504298 -29.050205707273854 6763.6224599302432
       400  442.57352076168337 -29.787079940326766 0.85810676200223557 -28.928973178324529 7538.1603025215527
       500  383.10544710331988 -29.660017001811191 0.74280398464297437 -28.917213017168216 7603.9387093221267
       600  358.60159183947991 -29.554186189264431 0.69529340637602988 -28.8588927828884 7730.1389219241555
       700  441.39160620866875 -29.783155680541313 0.85581514530473135 -28.927340535236581 8340.4580406188161
       800  314.87646894839406 -29.777979582220432 0.61051467050036123 -29.167464911720071 6643.1729529639842
       900  324.06370670297605 -29.855033484511431 0.62832782576496238 -29.226705658746468 7200.9872655337822
      1000  326.43572944629028 -29.671183137295095 0.63292694582112385 -29.038256191473973 7985.2038389309619
      1100  410.8998924842453 -29.496632876659064 0.79669469524496939 -28.699938181414094 9871.9733059043137
      1200  384.46222649557103 -29.520050972547139 0.74543464715760532 -28.774616325389534 9027.957149617454
      1300  351.23804309389237 -29.667842261053675 0.68101620569749166 -28.986826055356183 7695.3382769737182
      1400  293.74435690758264 -29.810143015146277 0.56954157250208826 -29.240601442644188 7760.8389448228581
      1500  197.51746004163445 -29.705056448927547 0.38296703287520067 -29.322089416052346 6749.0155258424384
      1600  277.99500011267679 -29.751024618465223 0.53900511035759435 -29.21201950810763 7264.7804914176395
      1700  378.11755328037026 -29.799363285155223 0.73313294646098837 -29.066230338694236 8117.5189126437181
      1800  325.92164402581386 -29.632236062338571 0.63193018448122629 -29.000305877857343 8286.0881695211865
      1900  274.37808384877184 -29.445610836043844 0.53199226354671614 -28.913618572497128 8286.7174600469407
      2000  581.64184116708918 -29.710144510281911 1.1277466309098738 -28.582397879372039 9200.4332279070077
Loop time of 0.31801 on 4 procs for 2000 steps with 16 atoms

Performance: 271.689 ns/day, 0.088 hours/ns, 6289.105 timesteps/s, 100.626 katom-step/s
83.4% CPU use with 4 MPI tasks x 1 OpenMP threads

MPI task timing breakdown:
Section |  min time  |  avg time  |  max time  |%varavg| %total
---------------------------------------------------------------
Pair    | 0.21114    | 0.22852    | 0.24758    |   3.2 | 71.86
Neigh   | 0.00070777 | 0.00075764 | 0.00081833 |   0.0 |  0.24
Comm    | 0.065333   | 0.084381   | 0.10148    |   5.3 | 26.53
Output  | 0.00015692 | 0.00017209 | 0.00020444 |   0.0 |  0.05
Modify  | 0.0020849  | 0.0026067  | 0.0030432  |   0.7 |  0.82
Other   |            | 0.001574   |            |       |  0.49

Nlocal:              4 ave           5 max           3 min
Histogram: 1 0 0 0 0 2 0 0 0 1
Nghost:         219.75 ave         221 max         217 min
Histogram: 1 0 0 0 0 0 0 1 0 2
Neighs:          65.75 ave          82 max          49 min
Histogram: 1 0 0 0 1 1 0 0 0 1
FullNghs:        131.5 ave         165 max          95 min
Histogram: 1 0 0 0 0 2 0 0 0 1

Total # of neighbors = 526
Ave neighs/atom = 32.875
Neighbor list builds = 115
Dangerous builds = 0
unfix thermostat
reset_timestep 0
fix integrate all nve
dump trajectory all custom 100 trajectory.ace_127.lammpstrj id type x y z vx vy vz fx fy fz
dump_modify trajectory sort id
print "YE3T_NVE_BEGIN"
YE3T_NVE_BEGIN
run 10000
Per MPI rank memory allocation (min/avg/max) = 3.601 | 3.601 | 3.601 Mbytes
   Step          Temp          PotEng         KinEng         TotEng         Press     
         0  581.64184116708918 -29.710144510281911 1.1277466309098738 -28.582397879372039 9200.4332279070077
       100  418.50409425116999 -29.393803221926216 0.8114384985899985 -28.582364723336219 9435.940186683596
       200  424.42488924411293 -29.405293207412846 0.82291834087954474 -28.5823748665333 9876.6547033568932
       300  431.55939081450845 -29.419115793705625 0.83675144149192549 -28.582364352213698 9894.691137399348
       400  514.19946456961316 -29.579363797543465 0.99698246023785841 -28.582381337305605 9237.3072987741962
       500  563.99042850320063 -29.675923773324833 1.0935222685040378 -28.582401504820794 9313.8050882462176
       600  449.38854383342465 -29.453705018251835 0.87132042505870999 -28.582384593193126 8993.0051907497946
       700  412.74490749510846 -29.382624917156956 0.8002719988624396 -28.582352918294518 9875.7590287553812
       800  531.60431031405437 -29.613108815124768 1.0307287535072951 -28.582380061617474 9864.9778946118859
       900  420.13554973183079 -29.396967505605641 0.81460173116986745 -28.582365774435772 9509.6680368096968
      1000  502.14141547444535 -29.555991501150295 0.97360308262098083 -28.582388418529316 8913.2430392746737
      1100  506.00805397826434 -29.563490838251759 0.98110011642597417 -28.582390721825785 9234.8831220975153
      1200  411.53932287196199 -29.380300023593215 0.79793448821447444 -28.582365535378742 9992.0161066816308
      1300  560.28877377887693 -29.668760323531664 1.0863451221079474 -28.582415201423718 10348.728212601511
      1400  480.26485961093698 -29.513576397862415 0.93118658087571538 -28.582389816986701 8910.6775253450014
      1500  432.25757384692906 -29.420473236151917 0.8381051500920339 -28.582368086059883 10419.586923795159
      1600  447.21598727811408 -29.449467778128579 0.86710805042830774 -28.582359727700272 10838.07595849799
      1700  485.7583453252156 -29.52420925031031 0.94183791227546165 -28.58237133803485 9844.2826591849134
      1800  406.68614494661574 -29.37088583445091 0.78852465097935853 -28.582361183471551 10475.814105395344
      1900  481.65571288741887 -29.516254182599077 0.93388330931859198 -28.582370873280485 9417.6886479017394
      2000  578.58276682851795 -29.704208706334228 1.1218153850213313 -28.582393321312896 9425.2298617981214
      2100  387.53094542700956 -29.333757819332149 0.75138459296823512 -28.582373226363913 10707.200760534852
      2200  500.01639048979121 -29.551834240508111 0.96948286705630549 -28.582351373451804 10194.613658579627
      2300  439.50333024837403 -29.434498693655442 0.85215396293831569 -28.582344730717125 10009.448691617416
      2400  463.79018637377175 -29.481604199846362 0.89924380110376145 -28.582360398742601 10463.93113616468
      2500  526.25008454720387 -29.602710199270817 1.0203474335225076 -28.582362765748311 8971.961766203447
      2600  371.13498268789874 -29.301933152601066 0.71959442515215422 -28.582338727448914 9597.9893293974692
      2700  563.09542856526321 -29.674148035492529 1.091786951177746 -28.582361084314783 9809.1679893221917
      2800  338.77074029936182 -29.23916770419715 0.65684332519279287 -28.582324379004358 8986.8659234051738
      2900  518.46034018928424 -29.587602577390363 1.0052438812442432 -28.58235869614612 9070.1955609486686
      3000  526.56883556306207 -29.603334704571029 1.0209654605604384 -28.582369244010589 10171.984771871859
      3100  459.97932664005322 -29.474240429972937 0.89185491687743468 -28.582385513095502 9190.032460967137
      3200  570.89873514173166 -29.689322924071362 1.1069167992710525 -28.582406124800311 8806.0221704160922
      3300  538.68478108448096 -29.626863768548851 1.0444570936840991 -28.582406674864753 8879.3595631421922
      3400  504.87184502997906 -29.561279693637623 0.97889711842488936 -28.582382575212733 9162.3117399944094
      3500  481.82589367039867 -29.516605552802812 0.93421327320885472 -28.582392279593957 9362.5585517192194
      3600  524.38280610117693 -29.599119069398395 1.0167269632821754 -28.58239210611622 9382.8337888212864
      3700  630.6907222470536 -29.805262928585968 1.2228476131171331 -28.582415315468836 9010.5048059637993
      3800  453.21364416001347 -29.461114590883923 0.87873692040152618 -28.582377670482398 8855.9567771428447
      3900  479.80788641497003 -29.512692496494921 0.93030055455213845 -28.582391941942781 8945.6965007566232
      4000  589.67449395012568 -29.725691834872546 1.143321158861923 -28.582370676010623 9142.5178014573848
      4100  401.71154930755171 -29.36124964489823 0.77887939667503181 -28.582370248223199 9419.0840184226472
      4200  509.56975512447087 -29.570391948214546 0.98800590652505405 -28.582386041689492 8826.1752936126377
      4300  501.79203070355703 -29.555285065125467 0.97292565972879352 -28.582359405396673 10538.704695225604
      4400  431.25982087952571 -29.418538710591303 0.83617060469342286 -28.582368105897881 9881.5822256812025
      4500  507.08455565970479 -29.565556181729207 0.98318734787751028 -28.582368833851696 8797.313721964565
      4600  426.65884728024275 -29.409589810865434 0.82724976697465558 -28.582340043890778 9491.101607066721
      4700  420.63595561647162 -29.397908642861221 0.81557196922798036 -28.58233667363324 10911.421893206485
      4800  407.9559846774614 -29.373343927165145 0.79098674599539665 -28.582357181169748 9570.2624212769824
      4900  457.00808392184234 -29.468440756884309 0.8860939679086427 -28.582346788975666 9485.0932532475908
      5000  483.47293938272895 -29.51976761341859 0.93740673372281635 -28.582360879695774 10071.932441412027
      5100  430.98739104551584 -29.418019124955702 0.83564238989572626 -28.582376735059977 8915.4666461009347
      5200  510.11782162894428 -29.571440569110962 0.98906855386262216 -28.582372015248339 9684.6500950177415
      5300  519.22023008410019 -29.589094285709077 1.0067172334140624 -28.582377052295016 9783.4843798538222
      5400  438.45711872654635 -29.432502173153942 0.85012546114313403 -28.582376712010809 9792.395958975796
      5500  521.7509304537873 -29.594000445462971 1.011624013865122 -28.582376431597847 8369.6927151189993
      5600  512.98150389591115 -29.576995398747101 0.99462095363855318 -28.582374445108549 9117.5833772445567
      5700  431.19655407002881 -29.418439560134551 0.83604793653888398 -28.582391623595669 9179.9979629255522
      5800  502.73810204317067 -29.557135064244033 0.97475999950687564 -28.582375064737157 10017.58739069876
      5900  391.03201438720788 -29.340517982093239 0.75817282318998869 -28.582345158903252 10085.031993831228
      6000  482.01904747143476 -29.516961913492356 0.93458777953379313 -28.582374133958563 10107.479302182521
      6100  466.62507707493779 -29.48713163894929 0.90474037685013953 -28.582391262099151 9088.5591737721188
      6200  517.71340934194257 -29.586191156481249 1.0037956553997578 -28.582395501081493 9396.8743710337876
      6300  452.92865289643669 -29.460555829646019 0.87818435022072117 -28.582371479425298 10366.859393434896
      6400  398.14535390366603 -29.354311370420913 0.77196489264996282 -28.582346477770951 10136.731517527487
      6500  555.41183073561581 -29.659262655973656 1.0768892066340174 -28.582373449339638 9670.9107238405504
      6600  394.71402377678533 -29.347684070809198 0.76531187920381083 -28.582372191605387 8384.935111182891
      6700  500.07181890622115 -29.551958022727888 0.96959033733347832 -28.582367685394409 10423.591811872211
      6800  399.29653262956816 -29.356494938460298 0.77419691558542825 -28.58229802287487 9680.7751484286091
      6900  423.21344363271521 -29.402918795014351 0.82056946634871142 -28.582349328665639 9829.5246029092141
      7000  461.5547356470347 -29.477248484711218 0.8949094808275857 -28.582339003883632 8759.6480162417502
      7100  395.95109164373258 -29.350049268727268 0.76771043278165751 -28.58233883594561 9372.591668121875
      7200  515.31747520912336 -29.581518238203202 0.9991501734984779 -28.582368064704724 9591.3473250353163
      7300  485.78287371357374 -29.524269063442787 0.94188547042099846 -28.582383593021788 9310.003177956798
      7400  512.53057206486756 -29.576101681891007 0.99374664093056597 -28.58235504096044 9585.5381236607991
      7500  413.57668293552587 -29.384243372039379 0.80188473007297656 -28.582358641966401 10082.433557880073
      7600  568.84084724166507 -29.685305720879882 1.1029267559457072 -28.582378964934176 9421.990953479326
      7700  498.48881756607062 -29.548913624065779 0.96652105259203258 -28.582392571473747 9253.6728404853257
      7800  543.64399916420564 -29.636464913304607 1.0540725324051765 -28.582392380899432 9878.8884059803277
      7900  387.66076357869332 -29.333988280137529 0.75163629766488926 -28.582351982472641 10229.749358356272
      8000  530.29101248038216 -29.610572742589508 1.0281823974811652 -28.582390345108344 8900.7972546975216
      8100  518.77336916537956 -29.588214579189341 1.0058508138068325 -28.582363765382507 10525.251064825105
      8200  409.94968573292368 -29.377219050173313 0.79485233730813221 -28.582366712865181 10155.45788015403
      8300  443.50695947669465 -29.442263419154909 0.85991660835700012 -28.582346810797908 9607.9166517686699
      8400  426.1850541462735 -29.408682665931067 0.82633112843670253 -28.582351537494365 9845.1942495276053
      8500  537.279225169043 -29.624113018113484 1.0417318582625723 -28.582381159850911 9832.5865868770434
      8600  380.71106942143757 -29.320504399141665 0.73816152054780138 -28.582342878593863 9757.533837416906
      8700  486.89925206768811 -29.526402842479563 0.9440500188399138 -28.582352823639649 10222.408634855821
      8800  435.46249482787687 -29.426664983419169 0.84431917835269676 -28.58234580506647 10903.733529009802
      8900  398.60211468071373 -29.355186688415721 0.77285050711403536 -28.582336181301685 9841.9639375941806
      9000  583.87237456156674 -29.714443289623922 1.1320714169598365 -28.582371872664087 9697.4128355366556
      9100  329.23087575607144 -29.220678300467696 0.63834646108060167 -28.582331839387095 10379.847364595773
      9200  423.92048421507349 -29.404270106161537 0.82194034887165923 -28.582329757289877 9430.2288760262727
      9300  626.79102534842286 -29.7976600516816 1.2152864823185372 -28.582373569363064 9814.1186651859152
      9400  377.06101494161629 -29.313446142572989 0.73108442197800738 -28.582361720594982 10026.67089016311
      9500  447.68460753972846 -29.450363160057748 0.86801665927280092 -28.582346500784947 10666.181510407441
      9600  452.83652543859989 -29.460345640916671 0.87800572409234423 -28.582339916824328 10074.897175783031
      9700  416.2208769145567 -29.389358648110822 0.80701156353004133 -28.582347084580782 10450.175535545844
      9800  475.57463532738956 -29.504459495821695 0.92209269481110745 -28.582366801010586 9616.1435830786595
      9900  523.16157492481273 -29.596722981902055 1.0143591154981448 -28.582363866403909 9990.1099577636705
     10000  454.86885239007574 -29.464322731439196 0.88194620723887185 -28.582376524200324 10325.489434767816
Loop time of 1.77781 on 4 procs for 10000 steps with 16 atoms

Performance: 242.996 ns/day, 0.099 hours/ns, 5624.902 timesteps/s, 89.998 katom-step/s
78.8% CPU use with 4 MPI tasks x 1 OpenMP threads

MPI task timing breakdown:
Section |  min time  |  avg time  |  max time  |%varavg| %total
---------------------------------------------------------------
Pair    | 1.0945     | 1.1455     | 1.2151     |   4.1 | 64.43
Neigh   | 0.0043207  | 0.0044894  | 0.0046904  |   0.2 |  0.25
Comm    | 0.53754    | 0.60781    | 0.6582     |   5.7 | 34.19
Output  | 0.0050023  | 0.0055693  | 0.006737   |   0.9 |  0.31
Modify  | 0.0014832  | 0.0014931  | 0.0015007  |   0.0 |  0.08
Other   |            | 0.01297    |            |       |  0.73

Nlocal:              4 ave           6 max           3 min
Histogram: 2 0 0 1 0 0 0 0 0 1
Nghost:         222.25 ave         227 max         215 min
Histogram: 1 0 0 0 0 1 0 0 0 2
Neighs:          66.25 ave         107 max          39 min
Histogram: 1 0 1 1 0 0 0 0 0 1
FullNghs:        132.5 ave         198 max          96 min
Histogram: 2 0 0 1 0 0 0 0 0 1

Total # of neighbors = 530
Ave neighs/atom = 33.125
Neighbor list builds = 683
Dangerous builds = 0
print "YE3T_NVE_END"
YE3T_NVE_END
Total wall time: 0:00:02
