LAMMPS (22 Jul 2025 - Update 4)
OMP_NUM_THREADS environment is not set. Defaulting to 1 thread.
  using 1 OpenMP thread(s) per MPI task
# 2000-step NVT preparation plus 10000-step NVE stability gate.
units metal
atom_style atomic
boundary p p p
atom_modify map yes sort 0 0.0
newton on
lattice bcc 3.427
Lattice spacing in x,y,z = 3.427 3.427 3.427
region cell block 0 2 0 2 0 2 units lattice
create_box 1 cell
Created orthogonal box = (0 0 0) to (6.854 6.854 6.854)
  1 by 1 by 1 MPI processor grid
create_atoms 1 box
Created 16 atoms
  using lattice units in orthogonal box = (0 0 0) to (6.854 6.854 6.854)
  create_atoms CPU = 0.000 seconds
mass 1 6.9400000000000004
reset_atoms id sort yes
Resetting atom IDs ...
WARNING: Communication cutoff is 0.0. No ghost atoms will be generated. Energies and forces may be wrong and atoms may get lost. (src/comm_brick.cpp:212)
displace_atoms all random 0.01 0.01 0.01 77304 units box
Displacing atoms ...
velocity all create 362.92000000000002 85223 mom yes rot no dist gaussian
neighbor 0.3 bin
neigh_modify every 1 delay 0 check yes
pair_style hybrid/overlay pace product zbl 1.6007008523823156 2.1009198687517894
ACE version: 2025.12.4p1
Product evaluator is used
pair_coeff * * pace models/ace_127/potential.yace Li
Loading models/ace_127/potential.yace
Total number of basis functions
	Li: 4 (r=1) 123 (r>1)
Mapping LAMMPS atom type #1(Li) -> ACE species type #0
pair_coeff * * zbl 3 3
timestep 0.0005
thermo 100
thermo_style custom step temp pe ke etotal press
thermo_modify format float %.17g
fix thermostat all nvt temp 362.92000000000002 362.92000000000002 0.05
run 2000
Neighbor list info ...
  update: every = 1 steps, delay = 0 steps, check = yes
  max neighbors/atom: 2000, page size: 100000
  master list distance cutoff = 5.5050358
  ghost atom cutoff = 5.5050358
  binsize = 2.7525179, bins = 3 3 3
  2 neighbor lists, perpetual/occasional/extra = 2 0 0
  (1) pair pace, perpetual
      attributes: full, newton on, cut 5.505035841991572
      pair build: full/bin/atomonly
      stencil: full/bin/3d
      bin: standard
  (2) pair zbl, perpetual, half/full from (1)
      attributes: half, newton on
      pair build: halffull/newton
      stencil: none
      bin: none
Per MPI rank memory allocation (min/avg/max) = 3.571 | 3.571 | 3.571 Mbytes
   Step          Temp          PotEng         KinEng         TotEng         Press     
         0  362.92000000000002 -30.383439827846573 0.70366637735100002 -29.679773450495574 3316.3194025560292
       100  217.3842400016251 -29.994978320143954 0.42148677574987292 -29.573491544394081 4619.4370385016946
       200  254.42638251001102 -29.834881986482049 0.49330786642604235 -29.341574120056006 5905.407840462788
       300  476.91582992062854 -29.974898847198766 0.92469313992503677 -29.050205707273729 6763.6224599311172
       400  442.57352076167996 -29.787079940326795 0.85810676200222902 -28.928973178324565 7538.1603025243267
       500  383.10544710331897 -29.660017001811202 0.74280398464297259 -28.91721301716823 7603.938709323791
       600  358.60159183948002 -29.554186189264463 0.6952934063760301 -28.858892782888432 7730.1389219227303
       700  441.39160620866471 -29.783155680541348 0.85581514530472358 -28.927340535236624 8340.458040616686
       800  314.87646894838895 -29.77797958222045 0.61051467050035135 -29.167464911720099 6643.1729529651193
       900  324.06370670297497 -29.855033484511349 0.62832782576496027 -29.22670565874639 7200.9872655331437
      1000  326.43572944630631 -29.671183137294946 0.63292694582115494 -29.038256191473792 7985.2038389271056
      1100  410.89989248424428 -29.496632876659078 0.79669469524496739 -28.699938181414112 9871.9733059045338
      1200  384.46222649556751 -29.520050972547217 0.74543464715759855 -28.774616325389619 9027.9571496187455
      1300  351.23804309389089 -29.667842261053732 0.68101620569748877 -28.986826055356243 7695.3382769733544
      1400  293.7443569075939 -29.810143015146192 0.56954157250211013 -29.240601442644081 7760.8389448276903
      1500  197.517460041633 -29.70505644892749 0.38296703287519784 -29.322089416052293 6749.0155258439854
      1600  277.99500011266389 -29.751024618465134 0.53900511035756926 -29.212019508107566 7264.780491415102
      1700  378.11755328031387 -29.799363285155451 0.73313294646087901 -29.06623033869457 8117.5189126422601
      1800  325.92164402578305 -29.632236062338883 0.63193018448116656 -29.000305877857716 8286.0881695196476
      1900  274.37808384874671 -29.445610836043848 0.5319922635466674 -28.913618572497182 8286.7174600476119
      2000  581.64184116689569 -29.710144510282028 1.1277466309094986 -28.582397879372529 9200.4332279051232
Loop time of 0.843851 on 1 procs for 2000 steps with 16 atoms

Performance: 102.388 ns/day, 0.234 hours/ns, 2370.086 timesteps/s, 37.921 katom-step/s
100.0% CPU use with 1 MPI tasks x 1 OpenMP threads

MPI task timing breakdown:
Section |  min time  |  avg time  |  max time  |%varavg| %total
---------------------------------------------------------------
Pair    | 0.83818    | 0.83818    | 0.83818    |   0.0 | 99.33
Neigh   | 0.002314   | 0.002314   | 0.002314   |   0.0 |  0.27
Comm    | 0.001583   | 0.001583   | 0.001583   |   0.0 |  0.19
Output  | 0.0002264  | 0.0002264  | 0.0002264  |   0.0 |  0.03
Modify  | 0.0010953  | 0.0010953  | 0.0010953  |   0.0 |  0.13
Other   |            | 0.0004524  |            |       |  0.05

Nlocal:             16 ave          16 max          16 min
Histogram: 1 0 0 0 0 0 0 0 0 0
Nghost:            316 ave         316 max         316 min
Histogram: 1 0 0 0 0 0 0 0 0 0
Neighs:            263 ave         263 max         263 min
Histogram: 1 0 0 0 0 0 0 0 0 0
FullNghs:          526 ave         526 max         526 min
Histogram: 1 0 0 0 0 0 0 0 0 0

Total # of neighbors = 526
Ave neighs/atom = 32.875
Neighbor list builds = 115
Dangerous builds = 0
unfix thermostat
reset_timestep 0
fix integrate all nve
dump trajectory all custom 100 trajectory.ace_127.lammpstrj id type x y z vx vy vz fx fy fz
dump_modify trajectory sort id
print "YE3T_NVE_BEGIN"
YE3T_NVE_BEGIN
run 10000
Per MPI rank memory allocation (min/avg/max) = 3.571 | 3.571 | 3.571 Mbytes
   Step          Temp          PotEng         KinEng         TotEng         Press     
         0  581.64184116689569 -29.710144510282028 1.1277466309094986 -28.582397879372529 9200.4332279051232
       100  418.50409425109336 -29.393803221926436 0.81143849858984995 -28.582364723336585 9435.9401866860135
       200  424.42488924395269 -29.405293207412882 0.82291834087923399 -28.582374866533648 9876.6547033569987
       300  431.55939081440704 -29.419115793705814 0.83675144149172886 -28.582364352214086 9894.6911373933563
       400  514.19946456935611 -29.579363797543447 0.99698246023736004 -28.582381337306089 9237.3072987713713
       500  563.99042850306648 -29.675923773325042 1.0935222685037778 -28.582401504821263 9313.8050882455736
       600  449.38854383319045 -29.453705018251693 0.87132042505825591 -28.582384593193439 8993.0051907513571
       700  412.74490749480447 -29.382624917156747 0.80027199886185019 -28.582352918294898 9875.7590287562416
       800  531.60431031360383 -29.613108815124285 1.0307287535064216 -28.582380061617862 9864.9778946129118
       900  420.13554973163565 -29.396967505605655 0.81460173116948909 -28.582365774436166 9509.6680368106427
      1000  502.14141547446383 -29.555991501150707 0.97360308262101658 -28.582388418529689 8913.2430392704173
      1100  506.00805397801213 -29.56349083825171 0.98110011642548522 -28.582390721826226 9234.8831220976117
      1200  411.5393228716585 -29.380300023592977 0.79793448821388591 -28.58236553537909 9992.0161066828387
      1300  560.28877377891058 -29.66876032353208 1.0863451221080127 -28.582415201424066 10348.728212597567
      1400  480.26485961092533 -29.513576397862831 0.93118658087569284 -28.582389816987138 8910.6775253414198
      1500  432.25757384676513 -29.420473236152056 0.83810515009171604 -28.582368086060338 10419.586923795763
      1600  447.21598727798477 -29.449467778128746 0.86710805042805705 -28.582359727700688 10838.075958493062
      1700  485.75834532555757 -29.524209250311376 0.94183791227612468 -28.582371338035252 9844.2826591814519
      1800  406.68614494656015 -29.37088583445135 0.78852465097925073 -28.582361183472099 10475.81410539223
      1900  481.65571288688585 -29.516254182598409 0.93388330931755859 -28.582370873280851 9417.6886479052737
      2000  578.58276682919211 -29.704208706335923 1.1218153850226384 -28.582393321313283 9425.2298617962479
      2100  387.53094542715036 -29.333757819332885 0.75138459296850812 -28.582373226364375 10707.200760532987
      2200  500.01639049049845 -29.551834240509962 0.96948286705767683 -28.582351373452283 10194.613658579136
      2300  439.50333024825471 -29.434498693655748 0.85215396293808443 -28.582344730717661 10009.448691614358
      2400  463.79018637408109 -29.481604199847212 0.8992438011043612 -28.58236039874285 10463.931136175041
      2500  526.25008454586896 -29.602710199268774 1.0203474335199192 -28.582362765748854 8971.9617662203254
      2600  371.13498268907512 -29.301933152603837 0.71959442515443517 -28.5823387274494 9597.9893293939022
      2700  563.09542856378869 -29.674148035490074 1.091786951174887 -28.582361084315188 9809.1679893251858
      2800  338.77074029933692 -29.23916770419757 0.65684332519274458 -28.582324379004824 8986.8659234179868
      2900  518.46034019039985 -29.587602577392929 1.0052438812464062 -28.582358696146521 9070.1955609472225
      3000  526.56883556424486 -29.603334704573836 1.0209654605627319 -28.582369244011105 10171.984771853413
      3100  459.97932664206803 -29.474240429977034 0.89185491688134122 -28.582385513095691 9190.0324609596992
      3200  570.89873514229748 -29.689322924072972 1.1069167992721496 -28.582406124800823 8806.0221704133619
      3300  538.68478108764566 -29.626863768555484 1.0444570936902351 -28.582406674865251 8879.3595631298613
      3400  504.87184502972741 -29.561279693637569 0.97889711842440152 -28.582382575213167 9162.3117399868825
      3500  481.82589367119829 -29.516605552804791 0.93421327321040515 -28.582392279594387 9362.5585517186137
      3600  524.38280610116567 -29.599119069398871 1.0167269632821534 -28.582392106116718 9382.8337888125952
      3700  630.690722248513 -29.805262928589276 1.2228476131199628 -28.582415315469312 9010.5048059571964
      3800  453.21364416111089 -29.461114590886062 0.87873692040365403 -28.582377670482408 8855.9567771365437
      3900  479.80788641362233 -29.512692496492676 0.93030055454952532 -28.58239194194315 8945.6965007680519
      4000  589.67449394807659 -29.725691834868861 1.1433211588579502 -28.58237067601091 9142.5178014772046
      4100  401.71154930975837 -29.361249644902863 0.77887939667931028 -28.582370248223551 9419.0840184370372
      4200  509.5697551250251 -29.570391948216038 0.98800590652612863 -28.582386041689908 8826.1752936138564
      4300  501.79203070488785 -29.555285065128452 0.9729256597313739 -28.582359405397078 10538.704695198345
      4400  431.25982088439326 -29.418538710601286 0.83617060470286053 -28.582368105898425 9881.5822257130676
      4500  507.08455565897373 -29.565556181728194 0.98318734787609274 -28.582368833852101 8797.3137219527034
      4600  426.65884728231219 -29.409589810869985 0.82724976697866803 -28.582340043891318 9491.1016070650403
      4700  420.63595562008635 -29.397908642868593 0.81557196923498898 -28.582336673633606 10911.421893274071
      4800  407.95598467751148 -29.373343927165468 0.79098674599549368 -28.582357181169975 9570.2624212478077
      4900  457.0080839083555 -29.468440756858541 0.88609396788249306 -28.582346788976047 9485.0932532521201
      5000  483.47293938863226 -29.519767613430357 0.93740673373426231 -28.582360879696093 10071.932441380141
      5100  430.98739104226206 -29.418019124949602 0.83564238988941753 -28.582376735060183 8915.4666460893004
      5200  510.11782163039283 -29.571440569114195 0.9890685538654308 -28.582372015248765 9684.6500949582532
      5300  519.22023007503026 -29.589094285692077 1.0067172333964767 -28.582377052295602 9783.4843799730697
      5400  438.45711875607344 -29.432502173211702 0.85012546120038412 -28.582376712011317 9792.3959587840964
      5500  521.75093044890298 -29.594000445453901 1.0116240138556518 -28.582376431598249 8369.6927149965159
      5600  512.98150389505395 -29.576995398745563 0.99462095363689118 -28.582374445108673 9117.5833772108708
      5700  431.19655407206142 -29.418439560138815 0.83604793654282505 -28.582391623595989 9179.9979627609464
      5800  502.73810200396446 -29.557135064167934 0.97475999943085856 -28.582375064737075 10017.587390895162
      5900  391.0320144136395 -29.340517982144767 0.75817282324123703 -28.582345158903529 10085.031993745542
      6000  482.01904744519146 -29.516961913441733 0.93458777948290994 -28.582374133958822 10107.47930212746
      6100  466.62507706206219 -29.487131638924605 0.90474037682517505 -28.582391262099431 9088.559174374117
      6200  517.71340942042866 -29.586191156633827 1.0037956555519347 -28.582395501081891 9396.8743712061732
      6300  452.92865289739615 -29.460555829648371 0.87818435022258146 -28.582371479425788 10366.859393759267
      6400  398.14535390993137 -29.354311370433742 0.77196489266211077 -28.58234647777163 10136.731518258968
      6500  555.41183073259583 -29.65926265596849 1.0768892066281619 -28.582373449340327 9670.9107238497345
      6600  394.71402382702485 -29.347684070907444 0.76531187930122035 -28.582372191606225 8384.9351108789633
      6700  500.07181889899073 -29.551958022714327 0.96959033731945932 -28.582367685394868 10423.59181171061
      6800  399.29653257649602 -29.356494938357681 0.77419691548252656 -28.582298022875154 9680.7751488949652
      6900  423.21344368614854 -29.402918795118236 0.82056946645231343 -28.582349328665924 9829.5246020927589
      7000  461.55473564063641 -29.477248484698848 0.89490948081517996 -28.582339003883668 8759.6480154856799
      7100  395.95109160213138 -29.350049268647144 0.76771043270099681 -28.582338835946146 9372.5916684883887
      7200  515.3174751034536 -29.581518237998743 0.99915017329359457 -28.58236806470515 9591.3473255160334
      7300  485.78287380642428 -29.524269063623073 0.94188547060102656 -28.582383593022048 9310.0031774678755
      7400  512.53057216455386 -29.576101682084939 0.99374664112384803 -28.58235504096109 9585.5381228899532
      7500  413.57668296200615 -29.3842433720916 0.80188473012431916 -28.582358641967282 10082.433558206805
      7600  568.84084726746244 -29.685305720931122 1.1029267559957259 -28.582378964935398 9421.9909527085019
      7700  498.48881738644604 -29.548913623719763 0.96652105224375806 -28.582392571476003 9253.672842601125
      7800  543.64399923345047 -29.63646491344101 1.0540725325394356 -28.582392380901574 9878.8884068410007
      7900  387.66076337667295 -29.333988279747601 0.75163629727319159 -28.58235198247441 10229.749358854788
      8000  530.29101251072109 -29.610572742650604 1.0281823975399893 -28.582390345110614 8900.797252975779
      8100  518.77336934613902 -29.588214579542132 1.0058508141573073 -28.582363765384827 10525.251063995898
      8200  409.94968554462821 -29.377219049810662 0.79485233694304569 -28.582366712867618 10155.457883574087
      8300  443.50695948761114 -29.442263419179699 0.85991660837816619 -28.582346810801532 9607.9166535843688
      8400  426.18505428584007 -29.408682666205184 0.8263311287073084 -28.582351537497875 9845.1942494958566
      8500  537.27922478631524 -29.624113017375045 1.0417318575205006 -28.582381159854545 9832.5865892978345
      8600  380.71106932841639 -29.320504398963894 0.73816152036744231 -28.582342878596453 9757.5338385106388
      8700  486.89925224797639 -29.526402842830638 0.94405001918947506 -28.582352823641163 10222.408630918952
      8800  435.46249464647991 -29.426664983069024 0.84431917800098577 -28.582345805068037 10903.733527659711
      8900  398.60211495924233 -29.355186688954291 0.77285050765407504 -28.582336181300217 9841.9639367659383
      9000  583.87237416036851 -29.714443288842919 1.1320714161819523 -28.582371872660968 9697.4128310454325
      9100  329.23087618110134 -29.220678301289794 0.63834646190469313 -28.582331839385102 10379.847360493322
      9200  423.92048426746635 -29.404270106260416 0.82194034897324386 -28.582329757287173 9430.22887781184
      9300  626.79102553495864 -29.79766005204192 1.2152864826802119 -28.582373569361707 9814.1186656439895
      9400  377.06101494748191 -29.313446142579853 0.73108442198938017 -28.582361720590473 10026.6708877538
      9500  447.68460776555895 -29.450363160490397 0.86801665971066422 -28.582346500779732 10666.181503090791
      9600  452.83652572395812 -29.460345641464656 0.87800572464562587 -28.582339916819031 10074.897171809074
      9700  416.22087669082805 -29.389358647667756 0.80701156309625333 -28.582347084571502 10450.17554983411
      9800  475.57463581507272 -29.504459496755878 0.92209269575667741 -28.5823668009992 9616.1435960369199
      9900  523.1615756183287 -29.596722983229245 1.0143591168428046 -28.582363866386441 9990.1099628224129
     10000  454.86885469865626 -29.464322735913996 0.88194621171498366 -28.582376524199013 10325.489422420242
Loop time of 4.20275 on 1 procs for 10000 steps with 16 atoms

Performance: 102.790 ns/day, 0.233 hours/ns, 2379.396 timesteps/s, 38.070 katom-step/s
100.0% CPU use with 1 MPI tasks x 1 OpenMP threads

MPI task timing breakdown:
Section |  min time  |  avg time  |  max time  |%varavg| %total
---------------------------------------------------------------
Pair    | 4.1714     | 4.1714     | 4.1714     |   0.0 | 99.25
Neigh   | 0.013417   | 0.013417   | 0.013417   |   0.0 |  0.32
Comm    | 0.0080384  | 0.0080384  | 0.0080384  |   0.0 |  0.19
Output  | 0.0050737  | 0.0050737  | 0.0050737  |   0.0 |  0.12
Modify  | 0.0021144  | 0.0021144  | 0.0021144  |   0.0 |  0.05
Other   |            | 0.002729   |            |       |  0.06

Nlocal:             16 ave          16 max          16 min
Histogram: 1 0 0 0 0 0 0 0 0 0
Nghost:            316 ave         316 max         316 min
Histogram: 1 0 0 0 0 0 0 0 0 0
Neighs:            265 ave         265 max         265 min
Histogram: 1 0 0 0 0 0 0 0 0 0
FullNghs:          530 ave         530 max         530 min
Histogram: 1 0 0 0 0 0 0 0 0 0

Total # of neighbors = 530
Ave neighs/atom = 33.125
Neighbor list builds = 683
Dangerous builds = 0
print "YE3T_NVE_END"
YE3T_NVE_END
Total wall time: 0:00:05
